Zr S
 1.0000000000000000
    54.0532327003000006    0.0000000000000000    0.0000000000000000
   -27.0266163518000013   46.8114726752000010    0.0000000000000000
     0.0000000000000000    0.0000000000000000   22.9186134248999984
 Zr  S
 434 868
Cartesian
 -0.0000004455000000  0.0000002252000000  8.3481092451999999
  3.2382116516999999  1.7257688031000000  8.3481092451999999
  0.1245461735000000  3.6672584532000001  8.3481092451999999
 -2.9891193046000000  5.6087481034000000  8.3481092451999999
  9.5900892271000000  1.5100477309000000  8.3481092451999999
  6.4764237489000003  3.4515373810000001  8.3481092451999999
  3.3627582707000001  5.3930270310999999  8.3481092451999999
  0.2490927925000000  7.3345166813000002  8.3481092451999999
 -2.8645726856999998  9.2760063313999996  8.3481092451999999
 -5.9782381638000004 11.2174959815000008  8.3481092451999999
 15.9419668024999996  1.2943266586000000  8.3481092451999999
 12.8283013242999999  3.2358163088000000  8.3481092451999999
  9.7146358461000002  5.1773059588999999  8.3481092451999999
  6.6009703678999996  7.1187956090000002  8.3481092451999999
  3.4873048896999999  9.0602852591000005  8.3481092451999999
  0.3736394115000000 11.0017749092999999  8.3481092451999999
 -2.7400260667000000 12.9432645593999993  8.3481092451999999
 -5.8536915448000002 14.8847542095000005  8.3481092451999999
 -8.9673570229999999 16.8262438596000017  8.3481092451999999
 22.2938443779000011  1.0786055863999999  8.3481092451999999
 19.1801788996999996  3.0200952365000000  8.3481092451999999
 16.0665134215000016  4.9615848866999999  8.3481092451999999
 12.9528479433000001  6.9030745368000002  8.3481092451999999
  9.8391824651000004  8.8445641868999996  8.3481092451999999
  6.7255169868999998 10.7860538370000008  8.3481092451999999
  3.6118515087000000 12.7275434872000002  8.3481092451999999
  0.4981860305000000 14.6690331372999996  8.3481092451999999
 -2.6154794476999998 16.6105227874000008  8.3481092451999999
 -5.7291449258000000 18.5520124375000002  8.3481092451999999
 -8.8428104039999997 20.4935020877000014  8.3481092451999999
 -11.9564758821999995 22.4349917378000008  8.3481092451999999
 28.6457219533000007  0.8628845142000000  8.3481092451999999
 25.5320564750999992  2.8043741643000000  8.3481092451999999
 22.4183909969000013  4.7458638143999998  8.3481092451999999
 19.3047255186999998  6.6873534645000001  8.3481092451999999
 16.1910600404999983  8.6288431147000004  8.3481092451999999
 13.0773945623000003 10.5703327647999998  8.3481092451999999
  9.9637290841000006 12.5118224148999992  8.3481092451999999
  6.8500636059000000 14.4533120650000004  8.3481092451999999
  3.7363981276999998 16.3948017151999998  8.3481092451999999
  0.6227326495000000 18.3362913652999993  8.3481092451999999
 -2.4909328287000001 20.2777810153999987  8.3481092451999999
 -5.6045983068999998 22.2192706655000016  8.3481092451999999
 -8.7182637849999995 24.1607603156999993  8.3481092451999999
 -11.8319292631999993 26.1022499657999987  8.3481092451999999
 -14.9455947414000008 28.0437396159000016  8.3481092451999999
 34.9975995287000003  0.6471634419000000  8.3481092451999999
 31.8839340504999988  2.5886530920999999  8.3481092451999999
 28.7702685723000009  4.5301427421999998  8.3481092451999999
 25.6566030940999994  6.4716323923000001  8.3481092451999999
 22.5429376159000014  8.4131220423999995  8.3481092451999999
 19.4292721376999999 10.3546116926000007  8.3481092451999999
 16.3156066594999984 12.2961013427000001  8.3481092451999999
 13.2019411813000005 14.2375909927999995  8.3481092451999999
 10.0882757031000008 16.1790806429000007  8.3481092451999999
  6.9746102249000002 18.1205702930999983  8.3481092451999999
  3.8609447467000000 20.0620599432000013  8.3481092451999999
  0.7472792685000000 22.0035495933000007  8.3481092451999999
 -2.3663862096999999 23.9450392434000001  8.3481092451999999
 -5.4800516878999996 25.8865288936000013  8.3481092451999999
 -8.5937171659999994 27.8280185437000007  8.3481092451999999
 -11.7073826442000009 29.7695081938000001  8.3481092451999999
 -14.8210481224000006 31.7109978438999995  8.3481092451999999
 -17.9347136005999985 33.6524874941000007  8.3481092451999999
 41.3494771041000035  0.4314423697000000  8.3481092451999999
 38.2358116258999985  2.3729320197999999  8.3481092451999999
 35.1221461477000005  4.3144216698999998  8.3481092451999999
 32.0084806695000026  6.2559113201000001  8.3481092451999999
 28.8948151913000011  8.1974009702000004  8.3481092451999999
 25.7811497130999996 10.1388906202999998  8.3481092451999999
 22.6674842349000016 12.0803802703999992  8.3481092451999999
 19.5538187567000001 14.0218699206000004  8.3481092451999999
 16.4401532784999986 15.9633595706999998  8.3481092451999999
 13.3264878003000007 17.9048492207999992  8.3481092451999999
 10.2128223220999992 19.8463388708999986  8.3481092451999999
  7.0991568439000003 21.7878285210999998  8.3481092451999999
  3.9854913657000002 23.7293181711999992  8.3481092451999999
  0.8718258875000000 25.6708078212999986  8.3481092451999999
 -2.2418395907000002 27.6122974714000016  8.3481092451999999
 -5.3555050689000003 29.5537871215999992  8.3481092451999999
 -8.4691705469999992 31.4952767716999986  8.3481092451999999
 -11.5828360252000007 33.4367664218000016  8.3481092451999999
 -14.6965015034000004 35.3782560718999974  8.3481092451999999
 -17.8101669815999983 37.3197457221000022  8.3481092451999999
 -20.9238324597999998 39.2612353721999980  8.3481092451999999
 47.7013546794999996  0.2157212975000000  8.3481092451999999
 44.5876892013000017  2.1572109475999999  8.3481092451999999
 41.4740237230999966  4.0987005976999997  8.3481092451999999
 38.3603582448999987  6.0401902478000000  8.3481092451999999
 35.2466927667000007  7.9816798980000003  8.3481092451999999
 32.1330272885000028  9.9231695481000006  8.3481092451999999
 29.0193618103000013 11.8646591982000000  8.3481092451999999
 25.9056963320999998 13.8061488482999994  8.3481092451999999
 22.7920308538999983 15.7476384985000006  8.3481092451999999
 19.6783653757000003 17.6891281485999983  8.3481092451999999
 16.5646998974999988 19.6306177987000012  8.3481092451999999
 13.4510344193000009 21.5721074488000006  8.3481092451999999
 10.3373689410999994 23.5135970989999983  8.3481092451999999
  7.2237034628999996 25.4550867491000012  8.3481092451999999
  4.1100379846999999 27.3965763992000007  8.3481092451999999
  0.9963725065000000 29.3380660493000001  8.3481092451999999
 -2.1172929717000000 31.2795556995000013  8.3481092451999999
 -5.2309584499000001 33.2210453495999971  8.3481092451999999
 -8.3446239280000007 35.1625349997000001  8.3481092451999999
 -11.4582894062000005 37.1040246498000030  8.3481092451999999
 -14.5719548844000002 39.0455143000000007  8.3481092451999999
 -17.6856203626000017 40.9870039500999965  8.3481092451999999
 -20.7992858407999996 42.9284936001999995  8.3481092451999999
 -23.9129513190000011 44.8699832503000025  8.3481092451999999
 50.9395667766999978  1.9414898753000001  8.3481092451999999
 47.8259012984999998  3.8829795255000001  8.3481092451999999
 44.7122358203000019  5.8244691756000000  8.3481092451999999
 41.5985703420999968  7.7659588257000003  8.3481092451999999
 38.4849048638999989  9.7074484757999997  8.3481092451999999
 35.3712393857000009 11.6489381259999991  8.3481092451999999
 32.2575739075000030 13.5904277761000003  8.3481092451999999
 29.1439084293000015 15.5319174261999997  8.3481092451999999
 26.0302429511000000 17.4734070762999991  8.3481092451999999
 22.9165774728999985 19.4148967265000003  8.3481092451999999
 19.8029119947000005 21.3563863765999997  8.3481092451999999
 16.6892465164999990 23.2978760266999991  8.3481092451999999
 13.5755810382999993 25.2393656767999985  8.3481092451999999
 10.4619155600999996 27.1808553269999997  8.3481092451999999
  7.3482500818999998 29.1223449770999991  8.3481092451999999
  4.2345846037000001 31.0638346271999986  8.3481092451999999
  1.1209191254999999 33.0053242772999980  8.3481092451999999
 -1.9927463527000000 34.9468139275000027  8.3481092451999999
 -5.1064118308999999 36.8883035775999986  8.3481092451999999
 -8.2200773091000006 38.8297932277000015  8.3481092451999999
 -11.3337427872000003 40.7712828777999974  8.3481092451999999
 -14.4474082654000000 42.7127725280000021  8.3481092451999999
 -17.5610737436000015 44.6542621780999980  8.3481092451999999
 -20.6747392217999995 46.5957518282000009  8.3481092451999999
 47.9504479175000000  7.5502377535000003  8.3481092451999999
 44.8367824393000021  9.4917274036000006  8.3481092451999999
 41.7231169610999970 11.4332170537000000  8.3481092451999999
 38.6094514828999991 13.3747067038999994  8.3481092451999999
 35.4957860047000011 15.3161963540000006  8.3481092451999999
 32.3821205265000032 17.2576860041000018  8.3481092451999999
 29.2684550483000017 19.1991756542000012  8.3481092451999999
 26.1547895701000002 21.1406653043999988  8.3481092451999999
 23.0411240918999987 23.0821549545000018  8.3481092451999999
 19.9274586137000007 25.0236446046000012  8.3481092451999999
 16.8137931354999992 26.9651342547000006  8.3481092451999999
 13.7001276572999995 28.9066239049000018  8.3481092451999999
 10.5864621790999998 30.8481135550000012  8.3481092451999999
  7.4727967009000000 32.7896032051000006  8.3481092451999999
  4.3591312227000003 34.7310928551999964  8.3481092451999999
  1.2454657444999999 36.6725825054000012  8.3481092451999999
 -1.8681997337000000 38.6140721554999971  8.3481092451999999
 -4.9818652118999998 40.5555618056000000  8.3481092451999999
 -8.0955306901000004 42.4970514557000030  8.3481092451999999
 -11.2091961682000001 44.4385411059000006  8.3481092451999999
 -14.3228616463999998 46.3800307559999965  8.3481092451999999
 44.9613290583000023 13.1589856316000002  8.3481092451999999
 41.8476635800999972 15.1004752816999996  8.3481092451999999
 38.7339981018999993 17.0419649319000008  8.3481092451999999
 35.6203326237000013 18.9834545820000002  8.3481092451999999
 32.5066671455000034 20.9249442320999997  8.3481092451999999
 29.3930016672999983 22.8664338821999991  8.3481092451999999
 26.2793361891000004 24.8079235324000003  8.3481092451999999
 23.1656707108999989 26.7494131824999997  8.3481092451999999
 20.0520052327000009 28.6909028325999991  8.3481092451999999
 16.9383397544999994 30.6323924826999985  8.3481092451999999
 13.8246742762999997 32.5738821329000032  8.3481092451999999
 10.7110087981000000 34.5153717829999991  8.3481092451999999
  7.5973433199000002 36.4568614331000020  8.3481092451999999
  4.4836778416999996 38.3983510831999979  8.3481092451999999
  1.3700123635000001 40.3398407334000026  8.3481092451999999
 -1.7436531147000001 42.2813303834999985  8.3481092451999999
 -4.8573185928999996 44.2228200336000015  8.3481092451999999
 -7.9709840711000002 46.1643096836999973  8.3481092451999999
 41.9722101990999974 18.7677335097999993  8.3481092451999999
 38.8585447208999994 20.7092231598999987  8.3481092451999999
 35.7448792427000015 22.6507128100000017  8.3481092451999999
 32.6312137645000035 24.5922024601000011  8.3481092451999999
 29.5175482862999985 26.5336921102999987  8.3481092451999999
 26.4038828081000005 28.4751817604000017  8.3481092451999999
 23.2902173298999990 30.4166714105000011  8.3481092451999999
 20.1765518517000011 32.3581610605999970  8.3481092451999999
 17.0628863734999996 34.2996507108000017  8.3481092451999999
 13.9492208952999999 36.2411403608999976  8.3481092451999999
 10.8355554171000001 38.1826300110000005  8.3481092451999999
  7.7218899389000004 40.1241196611000035  8.3481092451999999
  4.6082244606999998 42.0656093113000011  8.3481092451999999
  1.4945589825000001 44.0070989613999970  8.3481092451999999
 -1.6191064957000001 45.9485886115000000  8.3481092451999999
 38.9830913398999996 24.3764813879000002  8.3481092451999999
 35.8694258617000017 26.3179710379999996  8.3481092451999999
 32.7557603834999966 28.2594606882000008  8.3481092451999999
 29.6420949052999987 30.2009503383000002  8.3481092451999999
 26.5284294271000007 32.1424399883999996  8.3481092451999999
 23.4147639488999992 34.0839296385000026  8.3481092451999999
 20.3010984707000013 36.0254192887000002  8.3481092451999999
 17.1874329924999998 37.9669089388000032  8.3481092451999999
 14.0737675143000001 39.9083985888999990  8.3481092451999999
 10.9601020361000003 41.8498882390000020  8.3481092451999999
  7.8464365578999997 43.7913778891999996  8.3481092451999999
  4.7327710797000000 45.7328675393000026  8.3481092451999999
 35.9939724807000019 29.9852292660000010  8.3481092451999999
 32.8803070024999968 31.9267189161999987  8.3481092451999999
 29.7666415242999989 33.8682085662999981  8.3481092451999999
 26.6529760461000009 35.8096982164000011  8.3481092451999999
 23.5393105678999994 37.7511878664999969  8.3481092451999999
 20.4256450897000015 39.6926775167000017  8.3481092451999999
 17.3119796115000000 41.6341671667999975  8.3481092451999999
 14.1983141333000003 43.5756568169000005  8.3481092451999999
 11.0846486551000005 45.5171464670000034  8.3481092451999999
 33.0048536214999970 35.5939771441999966  8.3481092451999999
 29.8911881432999991 37.5354667942999995  8.3481092451999999
 26.7775226651000011 39.4769564444000025  8.3481092451999999
 23.6638571868999996 41.4184460946000002  8.3481092451999999
 20.5501917087000017 43.3599357447000031  8.3481092451999999
 17.4365262305000002 45.3014253947999990  8.3481092451999999
 30.0157347622999993 41.2027250223000010  8.3481092451999999
 26.9020692841000013 43.1442146723999969  8.3481092451999999
 23.7884038058999998 45.0857043226000016  8.3481092451999999
 -0.0000006646000000  0.0000006295000000 14.5705051173999998
  6.3518769107999997  0.2157217018000000 14.5705051173999998
  3.1136648134999998  1.9414902796000000 14.5705051173999998
 -0.1245472838000000  3.6672588574999998 14.5705051173999998
 12.7037544861999994  0.4314427740000000 14.5705051173999998
  9.4655423888999994  2.1572113519000000 14.5705051173999998
  6.2273302915000004  3.8829799297999998 14.5705051173999998
  2.9891181942000000  5.6087485076999997 14.5705051173999998
 -0.2490939031000000  7.3345170854999999 14.5705051173999998
 -3.4873060003999998  9.0602856634000002 14.5705051173999998
 19.0556320616000008  0.6471638462000000 14.5705051173999998
 15.8174199642000008  2.3729324241000000 14.5705051173999998
 12.5792078668999991  4.0987010020000003 14.5705051173999998
  9.3409957695999992  5.8244695798999997 14.5705051173999998
  6.1027836723000002  7.5502381578000000 14.5705051173999998
  2.8645715749999998  9.2760067356999993 14.5705051173999998
 -0.3736405223000000 11.0017753135999996 14.5705051173999998
 -3.6118526196000000 12.7275438913999999 14.5705051173999998
 -6.8500647170000004 14.4533124693000001 14.5705051173999998
 25.4075096368999986  0.8628849185000000 14.5705051173999998
 22.1692975395999987  2.5886534963000001 14.5705051173999998
 18.9310854422999988  4.3144220742000003 14.5705051173999998
 15.6928733450000006  6.0401906520999997 14.5705051173999998
 12.4546612477000007  7.7659592300000000 14.5705051173999998
  9.2164491504000008  9.4917278079000003 14.5705051173999998
  5.9782370530000000 11.2174963858000005 14.5705051173999998
  2.7400249557000000 12.9432649637000008 14.5705051173999998
 -0.4981871416000000 14.6690335415999993 14.5705051173999998
 -3.7363992388999998 16.3948021194999995 14.5705051173999998
 -6.9746113361999997 18.1205706972999998 14.5705051173999998
 -10.2128234335000005 19.8463392751999983 14.5705051173999998
 31.7593872122999983  1.0786059907000001 14.5705051173999998
 28.5211751149999984  2.8043745686000001 14.5705051173999998
 25.2829630176999984  4.5301431465000004 14.5705051173999998
 22.0447509203999985  6.2559117243999998 14.5705051173999998
 18.8065388230999986  7.9816803022000000 14.5705051173999998
 15.5683267257000004  9.7074488800999994 14.5705051173999998
 12.3301146284000005 11.4332174579999997 14.5705051173999998
  9.0919025311000006 13.1589860358999999 14.5705051173999998
  5.8536904337999998 14.8847546138000002 14.5705051173999998
  2.6154783364999998 16.6105231917000005 14.5705051173999998
 -0.6227337608000000 18.3362917695999990 14.5705051173999998
 -3.8609458581000000 20.0620603475000010 14.5705051173999998
 -7.0991579555000000 21.7878289253999995 14.5705051173999998
 -10.3373700528000008 23.5135975031999997 14.5705051173999998
 -13.5755821501000007 25.2393660810999982 14.5705051173999998
 38.1112647877000015  1.2943270629000001 14.5705051173999998
 34.8730526904000016  3.0200956408000001 14.5705051173999998
 31.6348405931000016  4.7458642187000004 14.5705051173999998
 28.3966284956999999  6.4716327965999998 14.5705051173999998
 25.1584163984000000  8.1974013745000001 14.5705051173999998
 21.9202043011000001  9.9231699524000003 14.5705051173999998
 18.6819922038000001 11.6489385303000006 14.5705051173999998
 15.4437801065000002 13.3747071082000009 14.5705051173999998
 12.2055680092000003 15.1004756859999993 14.5705051173999998
  8.9673559119000004 16.8262442639000014 14.5705051173999998
  5.7291438145000004 18.5520128417999999 14.5705051173999998
  2.4909317172000001 20.2777814196999984 14.5705051173999998
 -0.7472803801000000 22.0035499976000004 14.5705051173999998
 -3.9854924773999998 23.7293185754999989 14.5705051173999998
 -7.2237045747000002 25.4550871534000009 14.5705051173999998
 -10.4619166719999992 27.1808557312999994 14.5705051173999998
 -13.7001287692999991 28.9066243092000015 14.5705051173999998
 -16.9383408666999991 30.6323928870000017 14.5705051173999998
 44.4631423630999976  1.5100481351999999 14.5705051173999998
 41.2249302657000030  3.2358167131000002 14.5705051173999998
 37.9867181684000030  4.9615852908999996 14.5705051173999998
 34.7485060711000031  6.6873538687999998 14.5705051173999998
 31.5102939737999996  8.4131224466999992 14.5705051173999998
 28.2720818764999997 10.1388910245999995 14.5705051173999998
 25.0338697791999998 11.8646596024999997 14.5705051173999998
 21.7956576818999999 13.5904281804000000 14.5705051173999998
 18.5574455845000017 15.3161967583000003 14.5705051173999998
 15.3192334872000000 17.0419653362000005 14.5705051173999998
 12.0810213899000001 18.7677339140999990 14.5705051173999998
  8.8428092926000001 20.4935024918999993 14.5705051173999998
  5.6045971953000002 22.2192710698000013 14.5705051173999998
  2.3663850979999999 23.9450396476999998 14.5705051173999998
 -0.8718269993000000 25.6708082255999983 14.5705051173999998
 -4.1100390966000004 27.3965768035000004 14.5705051173999998
 -7.3482511940000004 29.1223453813999988 14.5705051173999998
 -10.5864632912999994 30.8481139593000009 14.5705051173999998
 -13.8246753885999993 32.5738825371999994 14.5705051173999998
 -17.0628874858999993 34.2996511150999979 14.5705051173999998
 -20.3010995831999992 36.0254196929000017 14.5705051173999998
 50.8150199383999990  1.7257692073999999 14.5705051173999998
 47.5768078410999991  3.4515377853000002 14.5705051173999998
 44.3385957437999991  5.1773063631999996 14.5705051173999998
 41.1003836464999992  6.9030749410999999 14.5705051173999998
 37.8621715491999993  8.6288435190000001 14.5705051173999998
 34.6239594518999994 10.3546120968000004 14.5705051173999998
 31.3857473545999994 12.0803806747000007 14.5705051173999998
 28.1475352572000013 13.8061492525999991 14.5705051173999998
 24.9093231599000013 15.5319178304999994 14.5705051173999998
 21.6711110626000014 17.2576864084000015 14.5705051173999998
 18.4328989653000015 18.9834549862999999 14.5705051173999998
 15.1946868679999998 20.7092235641999984 14.5705051173999998
 11.9564747706999999 22.4349921421000005 14.5705051173999998
  8.7182626733999999 24.1607607199999990 14.5705051173999998
  5.4800505760000000 25.8865292977999992 14.5705051173999998
  2.2418384787000001 27.6122978757000013 14.5705051173999998
 -0.9963736186000000 29.3380664535999998 14.5705051173999998
 -4.2345857158999998 31.0638350314999983 14.5705051173999998
 -7.4727978131999997 32.7896036093999967 14.5705051173999998
 -10.7110099104999996 34.5153721873000023 14.5705051173999998
 -13.9492220077999995 36.2411407652000008 14.5705051173999998
 -17.1874341052000013 37.9669093430999993 14.5705051173999998
 -20.4256462025000012 39.6926779209999978 14.5705051173999998
 -23.6638582998000011 41.4184464988000016 14.5705051173999998
 50.6904733192000023  5.3930274353999996 14.5705051173999998
 47.4522612219000024  7.1187960132999999 14.5705051173999998
 44.2140491246000025  8.8445645911999993 14.5705051173999998
 40.9758370272000008 10.5703331690999995 14.5705051173999998
 37.7376249299000008 12.2961017469999998 14.5705051173999998
 34.4994128326000009 14.0218703249000001 14.5705051173999998
 31.2612007353000010 15.7476389027000003 14.5705051173999998
 28.0229886380000011 17.4734074805999988 14.5705051173999998
 24.7847765407000011 19.1991760585000009 14.5705051173999998
 21.5465644434000012 20.9249446363999994 14.5705051173999998
 18.3083523459999995 22.6507132143000014 14.5705051173999998
 15.0701402486999996 24.3764817921999999 14.5705051173999998
 11.8319281513999996 26.1022503700999984 14.5705051173999998
  8.5937160540999997 27.8280189480000004 14.5705051173999998
  5.3555039567999998 29.5537875258999989 14.5705051173999998
  2.1172918594999999 31.2795561036999992 14.5705051173999998
 -1.1209202378000001 33.0053246816000012 14.5705051173999998
 -4.3591323352000000 34.7310932594999997 14.5705051173999998
 -7.5973444324999999 36.4568618373999982 14.5705051173999998
 -10.8355565297999998 38.1826304152999967 14.5705051173999998
 -14.0737686270999998 39.9083989932000023 14.5705051173999998
 -17.3119807244000015 41.6341675711000008 14.5705051173999998
 -20.5501928217000014 43.3599361489999993 14.5705051173999998
 -23.7884049190000013 45.0857047268999978 14.5705051173999998
 47.3277146025999969 10.7860542413000005 14.5705051173999998
 44.0895025052999969 12.5118228192000007 14.5705051173999998
 40.8512904079999970 14.2375913970999992 14.5705051173999998
 37.6130783106999971 15.9633599749999995 14.5705051173999998
 34.3748662133999972 17.6891285529000015 14.5705051173999998
 31.1366541159999990 19.4148971308000000 14.5705051173999998
 27.8984420186999991 21.1406657086999985 14.5705051173999998
 24.6602299213999991 22.8664342864999988 14.5705051173999998
 21.4220178240999992 24.5922028644000008 14.5705051173999998
 18.1838057267999993 26.3179714422999993 14.5705051173999998
 14.9455936294999994 28.0437400202000013 14.5705051173999998
 11.7073815321999994 29.7695085980999998 14.5705051173999998
  8.4691694348999995 31.4952771759999983 14.5705051173999998
  5.2309573374999996 33.2210457539000004 14.5705051173999998
  1.9927452402000001 34.9468143317999989 14.5705051173999998
 -1.2454668571000000 36.6725829096999973 14.5705051173999998
 -4.4836789544000002 38.3983514875000012 14.5705051173999998
 -7.7218910517000001 40.1241200653999996 14.5705051173999998
 -10.9601031490000000 41.8498886432999981 14.5705051173999998
 -14.1983152463000000 43.5756572211999966 14.5705051173999998
 -17.4365273436999999 45.3014257991000022 14.5705051173999998
 43.9649558861000003 16.1790810472000004 14.5705051173999998
 40.7267437886999986 17.9048496250999989 14.5705051173999998
 37.4885316913999986 19.6306182030000009 14.5705051173999998
 34.2503195940999987 21.3563867808999994 14.5705051173999998
 31.0121074967999988 23.0821553588000015 14.5705051173999998
 27.7738953994999989 24.8079239367000000 14.5705051173999998
 24.5356833021999989 26.5336925145999984 14.5705051173999998
 21.2974712048999990 28.2594610923999987 14.5705051173999998
 18.0592591075000009 29.9852296703000007 14.5705051173999998
 14.8210470101999991 31.7109982481999992 14.5705051173999998
 11.5828349128999992 33.4367668260999977 14.5705051173999998
  8.3446228155999993 35.1625354040000033 14.5705051173999998
  5.1064107183000003 36.8883039819000018 14.5705051173999998
  1.8681986209999999 38.6140725598000003 14.5705051173999998
 -1.3700134763000000 40.3398411376999988 14.5705051173999998
 -4.6082255737000004 42.0656097155999973 14.5705051173999998
 -7.8464376710000003 43.7913782934000011 14.5705051173999998
 -11.0846497683000003 45.5171468712999996 14.5705051173999998
 40.6021971695000019 21.5721078531000003 14.5705051173999998
 37.3639850722000020 23.2978764309999988 14.5705051173999998
 34.1257729749000021 25.0236450089000009 14.5705051173999998
 30.8875608775000003 26.7494135867999994 14.5705051173999998
 27.6493487802000004 28.4751821647000014 14.5705051173999998
 24.4111366829000005 30.2009507425999999 14.5705051173999998
 21.1729245856000006 31.9267193204999984 14.5705051173999998
 17.9347124883000006 33.6524878983000022 14.5705051173999998
 14.6965003910000007 35.3782564762000007 14.5705051173999998
 11.4582882937000008 37.1040250540999992 14.5705051173999998
  8.2200761963000009 38.8297936319999977 14.5705051173999998
  4.9818640990000000 40.5555622099000033 14.5705051173999998
  1.7436520016999999 42.2813307878000018 14.5705051173999998
 -1.4945600956000000 44.0070993657000002 14.5705051173999998
 -4.7327721928999997 45.7328679435999987 14.5705051173999998
 37.2394384529000035 26.9651346590000003 14.5705051173999998
 34.0012263555999965 28.6909032368999988 14.5705051173999998
 30.7630142583000001 30.4166718148000008 14.5705051173999998
 27.5248021610000002 32.1424403927000029 14.5705051173999998
 24.2865900637000003 33.8682089706000014 14.5705051173999998
 21.0483779664000004 35.5939775484999998 14.5705051173999998
 17.8101658689999987 37.3197461263999983 14.5705051173999998
 14.5719537717000005 39.0455147042000021 14.5705051173999998
 11.3337416744000006 40.7712832821000006 14.5705051173999998
  8.0955295771000007 42.4970518599999991 14.5705051173999998
  4.8573174797999998 44.2228204378999976 14.5705051173999998
  1.6191053824999999 45.9485890158000032 14.5705051173999998
 33.8766797363999999 32.3581614649000002 14.5705051173999998
 30.6384676390000017 34.0839300427999987 14.5705051173999998
 27.4002555417000018 35.8096986206999972 14.5705051173999998
 24.1620434443999983 37.5354671986000028 14.5705051173999998
 20.9238313470999984 39.2612357765000013 14.5705051173999998
 17.6856192497999984 40.9870043543999998 14.5705051173999998
 14.4474071525000003 42.7127729322999983 14.5705051173999998
 11.2091950552000004 44.4385415101999968 14.5705051173999998
  7.9709829578000004 46.1643100880000006 14.5705051173999998
 30.5139210198000015 37.7511882708000002 14.5705051173999998
 27.2757089225000016 39.4769568486999987 14.5705051173999998
 24.0374968252000016 41.2027254265999971 14.5705051173999998
 20.7992847279000017 42.9284940045000027 14.5705051173999998
 17.5610726305000000 44.6542625824000012 14.5705051173999998
 14.3228605332000001 46.3800311602999997 14.5705051173999998
 27.1511623031999996 43.1442150767000001 14.5705051173999998
 23.9129502058999996 44.8699836545999986 14.5705051173999998
 20.6747381085999997 46.5957522324999971 14.5705051173999998
 -0.9963728509000001  1.8695828976000000  6.8764302542999998
 51.9359401752000025  0.0719070241000000  9.8072104076999995
  2.2418392463000001  3.5953514754999998  6.8764302542999998
  1.1209195721000000  1.7976756020000000  9.8072104076999995
 -0.8718262319000000  5.5368411255999996  6.8764302542999998
 -1.9927459060999999  3.7391652520999998  9.8072104076999995
 -3.9854917100999998  7.4783307756999999  6.8764302542999998
 48.9468213159999976  5.6806549021999997  9.8072104076999995
  8.5937168216999993  3.3796304032000002  6.8764302542999998
  7.4727971474999997  1.5819545298000000  9.8072104076999995
  5.4800513434999996  5.3211200533999996  6.8764302542999998
  4.3591316693000000  3.5234441798999998  9.8072104076999995
  2.3663858652999998  7.2626097034999999  6.8764302542999998
  1.2454661911000000  5.4649338299999997  9.8072104076999995
 -0.7472796129000000  9.2040993536000002  6.8764302542999998
 -1.8681992870999999  7.4064234801000000  9.8072104076999995
 -3.8609450911000001 11.1455890036999996  6.8764302542999998
 -4.9818647653000001  9.3479131303000003  9.8072104076999995
 -6.9746105693000002 13.0870786539000008  6.8764302542999998
 45.9577024567999999 11.2894027803999997  9.8072104076999995
 14.9455943971000007  3.1639093310000002  6.8764302542999998
 13.8246747228999993  1.3662334574999999  9.8072104076999995
 11.8319289188999992  5.1053989810999996  6.8764302542999998
 10.7110092446999996  3.3077231077000002  9.8072104076999995
  8.7182634406999995  7.0468886312999999  6.8764302542999998
  7.5973437664999999  5.2492127577999996  9.8072104076999995
  5.6045979624999998  8.9883782813999993  6.8764302542999998
  4.4836782883000001  7.1907024078999999  9.8072104076999995
  2.4909324843000000 10.9298679315000005  6.8764302542999998
  1.3700128101000000  9.1321920579999993  9.8072104076999995
 -0.6227329939000000 12.8713575815999999  6.8764302542999998
 -1.7436526681000000 11.0736817082000005  9.8072104076999995
 -3.7363984720999999 14.8128472317999993  6.8764302542999998
 -4.8573181462999999 13.0151713582999999  9.8072104076999995
 -6.8500639503000000 16.7543368818999987  6.8764302542999998
 -7.9709836244999996 14.9566610083999993  9.8072104076999995
 -9.9637294285000007 18.6958265320000017  6.8764302542999998
 42.9685835976000021 16.8981506585000005  9.8072104076999995
 21.2974719724999986  2.9481882588000001  6.8764302542999998
 20.1765522982999990  1.1505123853000001  9.8072104076999995
 18.1838064943000006  4.8896779089000004  6.8764302542999998
 17.0628868201000010  3.0920020354000002  9.8072104076999995
 15.0701410160999991  6.8311675589999998  6.8764302542999998
 13.9492213418999995  5.0334916854999996  9.8072104076999995
 11.9564755378999994  8.7726572092000001  6.8764302542999998
 10.8355558636999998  6.9749813356999999  9.8072104076999995
  8.8428100596999997 10.7141468592999995  6.8764302542999998
  7.7218903855000001  8.9164709858000002  9.8072104076999995
  5.7291445814999999 12.6556365094000007  6.8764302542999998
  4.6082249073000003 10.8579606358999996  9.8072104076999995
  2.6154791033000002 14.5971261595000001  6.8764302542999998
  1.4945594290999999 12.7994502860000008  9.8072104076999995
 -0.4981863749000000 16.5386158097000013  6.8764302542999998
 -1.6191060491000000 14.7409399362000002  9.8072104076999995
 -3.6118518531000001 18.4801054598000007  6.8764302542999998
 -4.7327715272999997 16.6824295862999996  9.8072104076999995
 -6.7255173312999998 20.4215951099000002  6.8764302542999998
 -7.8464370055000003 18.6239192363999990  9.8072104076999995
 -9.8391828095000005 22.3630847599999996  6.8764302542999998
 -10.9601024837000001 20.5654088864999984  9.8072104076999995
 -12.9528482877000002 24.3045744102000008  6.8764302542999998
 39.9794647383999973 22.5068985366999996  9.8072104076999995
 27.6493495479000018  2.7324671865000001  6.8764302542999998
 26.5284298736999986  0.9347913131000000  9.8072104076999995
 24.5356840697000003  4.6739568367000004  6.8764302542999998
 23.4147643955000007  2.8762809632000002  9.8072104076999995
 21.4220185914999988  6.6154464867999998  6.8764302542999998
 20.3010989172999992  4.8177706132999996  9.8072104076999995
 18.3083531133000008  8.5569361368999992  6.8764302542999998
 17.1874334391000012  6.7592602633999999  9.8072104076999995
 15.1946876350999993 10.4984257870000004  6.8764302542999998
 14.0737679608999997  8.7007499135999993  9.8072104076999995
 12.0810221568999996 12.4399154371999998  6.8764302542999998
 10.9601024827000000 10.6422395637000005  9.8072104076999995
  8.9673566786999999 14.3814050872999992  6.8764302542999998
  7.8464370045000003 12.5837292137999999  9.8072104076999995
  5.8536912005000001 16.3228947373999986  6.8764302542999998
  4.7327715262999996 14.5252188638999993  9.8072104076999995
  2.7400257223000000 18.2643843875000016  6.8764302542999998
  1.6191060480999999 16.4667085140999987  9.8072104076999995
 -0.3736397559000000 20.2058740376999992  6.8764302542999998
 -1.4945594301000000 18.4081981642000017  9.8072104076999995
 -3.4873052340999999 22.1473636877999986  6.8764302542999998
 -4.6082249083000004 20.3496878143000011  9.8072104076999995
 -6.6009707122999997 24.0888533379000016  6.8764302542999998
 -7.7218903865000001 22.2911774644000005  9.8072104076999995
 -9.7146361905000003 26.0303429880000010  6.8764302542999998
 -10.8355558646999999 24.2326671146000017  9.8072104076999995
 -12.8283016687000000 27.9718326381999987  6.8764302542999998
 -13.9492213428999996 26.1741567647000011  9.8072104076999995
 -15.9419671468999997 29.9133222883000016  6.8764302542999998
 36.9903458791999995 28.1156464148000005  9.8072104076999995
 34.0012271232999979  2.5167461143000001  6.8764302542999998
 32.8803074491000018  0.7190702408000000  9.8072104076999995
 30.8875616450999999  4.4582357644000004  6.8764302542999998
 29.7666419709000003  2.6605598909000001  9.8072104076999995
 27.7738961668999984  6.3997254145999998  6.8764302542999998
 26.6529764926999988  4.6020495411000004  9.8072104076999995
 24.6602306887000005  8.3412150647000001  6.8764302542999998
 23.5393110145000009  6.5435391911999998  9.8072104076999995
 21.5465652104999990 10.2827047147999995  6.8764302542999998
 20.4256455362999993  8.4850288413000001  9.8072104076999995
 18.4328997323000010 12.2241943649000007  6.8764302542999998
 17.3119800581000014 10.4265184913999995  9.8072104076999995
 15.3192342540999995 14.1656840151000001  6.8764302542999998
 14.1983145798999999 12.3680081416000007  9.8072104076999995
 12.2055687758999998 16.1071736652000013  6.8764302542999998
 11.0846491017000002 14.3094977917000001  9.8072104076999995
  9.0919032977000001 18.0486633153000007  6.8764302542999998
  7.9709836234999996 16.2509874417999995  9.8072104076999995
  5.9782378195000003 19.9901529654000001  6.8764302542999998
  4.8573181452999998 18.1924770918999990  9.8072104076999995
  2.8645723413000002 21.9316426156000013  6.8764302542999998
  1.7436526671000001 20.1339667421000001  9.8072104076999995
 -0.2490931369000000 23.8731322657000007  6.8764302542999998
 -1.3700128111000001 22.0754563921999996  9.8072104076999995
 -3.3627586151000002 25.8146219158000001  6.8764302542999998
 -4.4836782893000002 24.0169460422999990  9.8072104076999995
 -6.4764240933000004 27.7561115658999995  6.8764302542999998
 -7.5973437675000000 25.9584356923999984  9.8072104076999995
 -9.5900895715000001 29.6976012161000007  6.8764302542999998
 -10.7110092456999997 27.8999253425999996  9.8072104076999995
 -12.7037550496999998 31.6390908662000001  6.8764302542999998
 -13.8246747238999994 29.8414149926999990  9.8072104076999995
 -15.8174205278999995 33.5805805163000031  6.8764302542999998
 -16.9383402021000009 31.7829046427999984  9.8072104076999995
 -18.9310860060999993 35.5220701663999989  6.8764302542999998
 34.0012270200000017 33.7243942929000013  9.8072104076999995
 40.3531046985999993  2.3010250421000000  6.8764302542999998
 39.2321850244000032  0.5033491686000000  9.8072104076999995
 37.2394392204000013  4.2425146922000003  6.8764302542999998
 36.1185195462999999  2.4448388187000001  9.8072104076999995
 34.1257737422999980  6.1840043422999997  6.8764302542999998
 33.0048540681000020  4.3863284688000004  9.8072104076999995
 31.0121082641000001  8.1254939923999991  6.8764302542999998
 29.8911885899000005  6.3278181189999998  9.8072104076999995
 27.8984427858999986 10.0669836426000003  6.8764302542999998
 26.7775231116999990  8.2693077690999992  9.8072104076999995
 24.7847773077000006 12.0084732926999997  6.8764302542999998
 23.6638576335000010 10.2107974192000004  9.8072104076999995
 21.6711118294999991 13.9499629427999992  6.8764302542999998
 20.5501921552999995 12.1522870692999998  9.8072104076999995
 18.5574463513000012 15.8914525929000003  6.8764302542999998
 17.4365266771000016 14.0937767194999992  9.8072104076999995
 15.4437808730999997 17.8329422430999998  6.8764302542999998
 14.3228611989000001 16.0352663695999986  9.8072104076999995
 12.3301153949000000 19.7744318931999992  6.8764302542999998
 11.2091957207000004 17.9767560197000016  9.8072104076999995
  9.2164499167000002 21.7159215432999986  6.8764302542999998
  8.0955302425000006 19.9182456698000010  9.8072104076999995
  6.1027844384999996 23.6574111934000015  6.8764302542999998
  4.9818647643000000 21.8597353199999986  9.8072104076999995
  2.9891189602999999 25.5989008435999992  6.8764302542999998
  1.8681992861000001 23.8012249701000016  9.8072104076999995
 -0.1245465179000000 27.5403904936999986  6.8764302542999998
 -1.2454661921000001 25.7427146202000010  9.8072104076999995
 -3.2382119961000000 29.4818801438000015  6.8764302542999998
 -4.3591316703000000 27.6842042703000004  9.8072104076999995
 -6.3518774743000002 31.4233697939000010  6.8764302542999998
 -7.4727971484999998 29.6256939205000016  9.8072104076999995
 -9.4655429524999999 33.3648594440999986  6.8764302542999998
 -10.5864626266999995 31.5671835706000010  9.8072104076999995
 -12.5792084306999996 35.3063490942000016  6.8764302542999998
 -13.7001281048999992 33.5086732206999969  9.8072104076999995
 -15.6928739088999993 37.2478387442999974  6.8764302542999998
 -16.8137935831000007 35.4501628707999998  9.8072104076999995
 -18.8065393870999991 39.1893283944000004  6.8764302542999998
 -19.9274590612999987 37.3916525209999975  9.8072104076999995
 -21.9202048653000006 41.1308180445999980  6.8764302542999998
 31.0121081608000004 39.3331421711000004  9.8072104076999995
 46.7049822740000025  2.0853039698000000  6.8764302542999998
 45.5840625997999993  0.2876280963000000  9.8072104076999995
 43.5913167957999974  4.0267936200000003  6.8764302542999998
 42.4703971216000014  2.2291177465000001  9.8072104076999995
 40.4776513175999995  5.9682832700999997  6.8764302542999998
 39.3567316434000034  4.1706073966000003  9.8072104076999995
 37.3639858394000015  7.9097729202000000  6.8764302542999998
 36.2430661651999984  6.1120970466999998  9.8072104076999995
 34.2503203612999982  9.8512625702999994  6.8764302542999998
 33.1294006871000022  8.0535866968000001  9.8072104076999995
 31.1366548831000003 11.7927522205000006  6.8764302542999998
 30.0157352089000007  9.9950763469999995  9.8072104076999995
 28.0229894048999988 13.7342418706000000  6.8764302542999998
 26.9020697306999992 11.9365659971000007  9.8072104076999995
 24.9093239267000008 15.6757315206999994  6.8764302542999998
 23.7884042525000012 13.8780556472000001  9.8072104076999995
 21.7956584484999993 17.6172211708000006  6.8764302542999998
 20.6747387742999997 15.8195452972999995  9.8072104076999995
 18.6819929703000014 19.5587108209999982  6.8764302542999998
 17.5610732960999982 17.7610349475000007  9.8072104076999995
 15.5683274920999999 21.5002004711000012  6.8764302542999998
 14.4474078179000003 19.7025245976000001  9.8072104076999995
 12.4546620139000002 23.4416901212000006  6.8764302542999998
 11.3337423397000006 21.6440142476999995  9.8072104076999995
  9.3409965357000004 25.3831797713000000  6.8764302542999998
  8.2200768615000008 23.5855038977999989  9.8072104076999995
  6.2273310574999998 27.3246694215000012  6.8764302542999998
  5.1064113833000002 25.5269935480000001  9.8072104076999995
  3.1136655793000001 29.2661590716000006  6.8764302542999998
  1.9927459051000000 27.4684831980999995  9.8072104076999995
  0.0000001011000000 31.2076487217000000  6.8764302542999998
 -1.1209195730999999 29.4099728481999989  9.8072104076999995
 -3.1136653770999998 33.1491383717999994  6.8764302542999998
 -4.2345850512999998 31.3514624982999983  9.8072104076999995
 -6.2273308553000000 35.0906280219999971  6.8764302542999998
 -7.3482505294999996 33.2929521484999995  9.8072104076999995
 -9.3409963334999997 37.0321176721000000  6.8764302542999998
 -10.4619160076999993 35.2344417986000025  9.8072104076999995
 -12.4546618116999994 38.9736073222000030  6.8764302542999998
 -13.5755814859000008 37.1759314486999983  9.8072104076999995
 -15.5683272898999991 40.9150969722999989  6.8764302542999998
 -16.6892469641000005 39.1174210988000013  9.8072104076999995
 -18.6819927680999989 42.8565866224999965  6.8764302542999998
 -19.8029124422999985 41.0589107489999989  9.8072104076999995
 -21.7956582463000004 44.7980762725999995  6.8764302542999998
 -22.9165779205000000 43.0004003991000019  9.8072104076999995
 -24.9093237244999983 46.7395659227000024  6.8764302542999998
 28.0229893017000009 44.9418900491999977  9.8072104076999995
 49.9431943712000006  3.8110725476999998  6.8764302542999998
 48.8222746969999974  2.0133966742000000  9.8072104076999995
 46.8295288930000027  5.7525621977999997  6.8764302542999998
 45.7086092187999995  3.9548863243999999  9.8072104076999995
 43.7158634147999976  7.6940518480000000  6.8764302542999998
 42.5949437406000015  5.8963759744999997  9.8072104076999995
 40.6021979365999997  9.6355414981000003  6.8764302542999998
 39.4812782623999965  7.8378656246000000  9.8072104076999995
 37.4885324584000017 11.5770311481999997  6.8764302542999998
 36.3676127841999985  9.7793552747000003  9.8072104076999995
 34.3748669802999984 13.5185207983000009  6.8764302542999998
 33.2539473061000024 11.7208449248999997  9.8072104076999995
 31.2612015021000005 15.4600104485000003  6.8764302542999998
 30.1402818279000009 13.6623345749999991  9.8072104076999995
 28.1475360238999990 17.4015000985999997  6.8764302542999998
 27.0266163496999994 15.6038242251000003  9.8072104076999995
 25.0338705457000010 19.3429897486999991  6.8764302542999998
 23.9129508715000014 17.5453138752000015  9.8072104076999995
 21.9202050674999995 21.2844793987999985  6.8764302542999998
 20.7992853932999999 19.4868035253999992  9.8072104076999995
 18.8065395893000016 23.2259690489999997  6.8764302542999998
 17.6856199150999984 21.4282931754999986  9.8072104076999995
 15.6928741111000001 25.1674586990999991  6.8764302542999998
 14.5719544369000005 23.3697828256000015  9.8072104076999995
 12.5792086329000004 27.1089483491999985  6.8764302542999998
 11.4582889587000007 25.3112724757000009  9.8072104076999995
  9.4655431547000006 29.0504379993000015  6.8764302542999998
  8.3446234804999992 27.2527621258999986  9.8072104076999995
  6.3518776765000000 30.9919276494999991  6.8764302542999998
  5.2309580023000004 29.1942517760000015  9.8072104076999995
  3.2382121982999998 32.9334172996000021  6.8764302542999998
  2.1172925240999998 31.1357414261000010  9.8072104076999995
  0.1245467201000000 34.8749069496999979  6.8764302542999998
 -0.9963729541000000 33.0772310762000004  9.8072104076999995
 -2.9891187581000001 36.8163965998000009  6.8764302542999998
 -4.1100384322999997 35.0187207263999980  9.8072104076999995
 -6.1027842362999998 38.7578862499999985  6.8764302542999998
 -7.2237039105000003 36.9602103765000010  9.8072104076999995
 -9.2164497144999995 40.6993759001000015  6.8764302542999998
 -10.3373693887000009 38.9017000265999968  9.8072104076999995
 -12.3301151926999992 42.6408655501999974  6.8764302542999998
 -13.4510348669000006 40.8431896766999998  9.8072104076999995
 -15.4437806709000007 44.5823552003000003  6.8764302542999998
 -16.5647003451000003 42.7846793268999974  9.8072104076999995
 -18.5574461490999987 46.5238448504999980  6.8764302542999998
 -19.6783658232999983 44.7261689770000004  9.8072104076999995
  5.3555047245000003  1.6538618253999999  6.8764302542999998
 -22.7920313014999998 46.6676586271000033  9.8072104076999995
 46.9540755120000028  9.4198204258999993  6.8764302542999998
 45.8331558377999997  7.6221445524000000  9.8072104076999995
 43.8404100337999978 11.3613100760000005  6.8764302542999998
 42.7194903596000017  9.5636342024999994  9.8072104076999995
 40.7267445555999998 13.3027997260999999  6.8764302542999998
 39.6058248813999967 11.5051238526000006  9.8072104076999995
 37.6130790774000019 15.2442893761999994  6.8764302542999998
 36.4921594031999987 13.4466135027000000  9.8072104076999995
 34.4994135991999968 17.1857790263999988  6.8764302542999998
 33.3784939251000026 15.3881031528999994  9.8072104076999995
 31.3857481211000007 19.1272686765000017  6.8764302542999998
 30.2648284469000011 17.3295928030000006  9.8072104076999995
 28.2720826428999992 21.0687583266000011  6.8764302542999998
 27.1511629686999996 19.2710824531000000  9.8072104076999995
 25.1584171647000012 23.0102479767000005  6.8764302542999998
 24.0374974905000016 21.2125721031999994  9.8072104076999995
 22.0447516864999997 24.9517376269000017  6.8764302542999998
 20.9238320123000001 23.1540617534000006  9.8072104076999995
 18.9310862083000018 26.8932272770000012  6.8764302542999998
 17.8101665340999986 25.0955514035000000  9.8072104076999995
 15.8174207301000003 28.8347169271000006  6.8764302542999998
 14.6965010559000007 27.0370410535999994  9.8072104076999995
 12.7037552519000005 30.7762065772000000  6.8764302542999998
 11.5828355776999992 28.9785307036999988  9.8072104076999995
  9.5900897737000008 32.7176962273999976  6.8764302542999998
  8.4691700994999994 30.9200203539000000  9.8072104076999995
  6.4764242955000002 34.6591858775000006  6.8764302542999998
  5.3555046212999997 32.8615100040000030  9.8072104076999995
  3.3627588173000000 36.6006755276000035  6.8764302542999998
  2.2418391431000000 34.8029996540999988  9.8072104076999995
  0.2490933391000000 38.5421651776999994  6.8764302542999998
 -0.8718263351000000 36.7444893042000018  9.8072104076999995
 -2.8645721390999999 40.4836548278999970  6.8764302542999998
 -3.9854918132999999 38.6859789543999995  9.8072104076999995
 -5.9782376172999996 42.4251444780000000  6.8764302542999998
 -7.0991572915000001 40.6274686045000024  9.8072104076999995
 -9.0919030954999993 44.3666341281000030  6.8764302542999998
 -10.2128227697000007 42.5689582545999983  9.8072104076999995
 -12.2055685737000008 46.3081237781999988  6.8764302542999998
 -13.3264882479000004 44.5104479047000012  9.8072104076999995
 11.7073822999000008  1.4381407530999999  6.8764302542999998
 -16.4401537261000001 46.4519375548999989  9.8072104076999995
 43.9649566527999980 15.0285683040000002  6.8764302542999998
 42.8440369786000019 13.2308924305000009  9.8072104076999995
 40.8512911746000000 16.9700579540999996  6.8764302542999998
 39.7303715003999969 15.1723820806000003  9.8072104076999995
 37.7376256964000021 18.9115476041999990  6.8764302542999998
 36.6167060221999989 17.1138717307999997  9.8072104076999995
 34.6239602181999970 20.8530372544000002  6.8764302542999998
 33.5030405440000010 19.0553613808999991  9.8072104076999995
 31.5102947401000009 22.7945269044999996  6.8764302542999998
 30.3893750659000013 20.9968510309999985  9.8072104076999995
 28.3966292618999994 24.7360165545999990  6.8764302542999998
 27.2757095876999998 22.9383406811000015  9.8072104076999995
 25.2829637837000014 26.6775062046999984  6.8764302542999998
 24.1620441094999983 24.8798303312999991  9.8072104076999995
 22.1692983054999999 28.6189958548999996  6.8764302542999998
 21.0483786313000003 26.8213199813999985  9.8072104076999995
 19.0556328272999984 30.5604855049999991  6.8764302542999998
 17.9347131530999988 28.7628096315000015  9.8072104076999995
 15.9419673491000005 32.5019751550999985  6.8764302542999998
 14.8210476749000009 30.7042992816000009  9.8072104076999995
 12.8283018709000007 34.4434648052000014  6.8764302542999998
 11.7073821966999994 32.6457889317999985  9.8072104076999995
  9.7146363926999992 36.3849544553999991  6.8764302542999998
  8.5937167184999996 34.5872785819000015  9.8072104076999995
  6.6009709145000004 38.3264441055000020  6.8764302542999998
  5.4800512402999999 36.5287682319999973  9.8072104076999995
  3.4873054362999998 40.2679337555999979  6.8764302542999998
  2.3663857621000002 38.4702578821000003  9.8072104076999995
  0.3736399581000000 42.2094234057000008  6.8764302542999998
 -0.7472797161000000 40.4117475322999979  9.8072104076999995
 -2.7400255201000001 44.1509130558999985  6.8764302542999998
 -3.8609451943000002 42.3532371824000009  9.8072104076999995
 -5.8536909983000003 46.0924027060000014  6.8764302542999998
 -6.9746106724999999 44.2947268324999968  9.8072104076999995
 18.0592598753000004  1.2224196809000001  6.8764302542999998
 -10.0882761507000005 46.2362164825999997  9.8072104076999995
 40.9758377936000002 20.6373161821000011  6.8764302542999998
 39.8549181193999971 18.8396403087000017  9.8072104076999995
 37.8621723154000023 22.5788058322999987  6.8764302542999998
 36.7412526411999991 20.7811299588000011  9.8072104076999995
 34.7485068371999972 24.5202954824000017  6.8764302542999998
 33.6275871630000012 22.7226196089000005  9.8072104076999995
 31.6348413591000011 26.4617851325000011  6.8764302542999998
 30.5139216849000015 24.6641092590000000  9.8072104076999995
 28.5211758808999996 28.4032747826000005  6.8764302542999998
 27.4002562067000000 26.6055989092000011  9.8072104076999995
 25.4075104027000016 30.3447644328000017  6.8764302542999998
 24.2865907284999984 28.5470885593000006  9.8072104076999995
 22.2938449245000001 32.2862540829000011  6.8764302542999998
 21.1729252503000005 30.4885782094000000  9.8072104076999995
 19.1801794462999986 34.2277437329999970  6.8764302542999998
 18.0592597720999990 32.4300678594999994  9.8072104076999995
 16.0665139681000007 36.1692333830999999  6.8764302542999998
 14.9455942938999993 34.3715575096999970  9.8072104076999995
 12.9528484898999992 38.1107230332999976  6.8764302542999998
 11.8319288156999995 36.3130471598000000  9.8072104076999995
  9.8391830116999994 40.0522126834000005  6.8764302542999998
  8.7182633374999998 38.2545368099000029  9.8072104076999995
  6.7255175334999997 41.9937023335000035  6.8764302542999998
  5.6045978593000001 40.1960264599999988  9.8072104076999995
  3.6118520553000000 43.9351919835999993  6.8764302542999998
  2.4909323810999999 42.1375161101000018  9.8072104076999995
  0.4981865771000000 45.8766816337999970  6.8764302542999998
 -0.6227330971000000 44.0790057602999994  9.8072104076999995
 24.4111374507000001  1.0066986087000001  6.8764302542999998
 -3.7363985753000000 46.0204954104000024  9.8072104076999995
 37.9867189344000025 26.2460640603000002  6.8764302542999998
 36.8657992601999993 24.4483881867999990  9.8072104076999995
 34.8730534561999974 28.1875537103999996  6.8764302542999998
 33.7521337820000014 26.3898778368999984  9.8072104076999995
 31.7593879779999995 30.1290433604999990  6.8764302542999998
 30.6384683039000016 28.3313674870000014  9.8072104076999995
 28.6457224998999997 32.0705330106999966  6.8764302542999998
 27.5248028257000001 30.2728571371999990  9.8072104076999995
 25.5320570216999982 34.0120226607999996  6.8764302542999998
 24.4111373474999986 32.2143467873000020  9.8072104076999995
 22.4183915435000003 35.9535123109000025  6.8764302542999998
 21.2974718693000007 34.1558364373999979  9.8072104076999995
 19.3047260652999988 37.8950019609999984  6.8764302542999998
 18.1838063910999992 36.0973260875000008  9.8072104076999995
 16.1910605871000008 39.8364916111000014  6.8764302542999998
 15.0701409128999995 38.0388157376999985  9.8072104076999995
 13.0773951088999993 41.7779812612999990  6.8764302542999998
 11.9564754346999997 39.9803053878000014  9.8072104076999995
  9.9637296306999996 43.7194709114000020  6.8764302542999998
  8.8428099565000000 41.9217950378999973  9.8072104076999995
  6.8500641524999999 45.6609605614999978  6.8764302542999998
  5.7291444783000003 43.8632846880000002  9.8072104076999995
 30.7630150260999997  0.7909775364000000  6.8764302542999998
  2.6154790001000001 45.8047743381999979  9.8072104076999995
 34.9976000751999976 31.8548119384000010  6.8764302542999998
 33.8766804010000016 30.0571360648999999  9.8072104076999995
 31.8839345969999997 33.7963015885000004  6.8764302542999998
 30.7630149228999983 31.9986257151000011  9.8072104076999995
 28.7702691188999999 35.7377912386999981  6.8764302542999998
 27.6493494447000003 33.9401153652000005  9.8072104076999995
 25.6566036406999984 37.6792808888000010  6.8764302542999998
 24.5356839664999988 35.8816050153000035  9.8072104076999995
 22.5429381625000005 39.6207705388999969  6.8764302542999998
 21.4220184883000009 37.8230946653999993  9.8072104076999995
 19.4292726842999990 41.5622601889999999  6.8764302542999998
 18.3083530100999994 39.7645843155999970  9.8072104076999995
 16.3156072061000010 43.5037498391999975  6.8764302542999998
 15.1946875318999997 41.7060739656999999  9.8072104076999995
 13.2019417278999995 45.4452394893000005  6.8764302542999998
 12.0810220536999999 43.6475636158000029  9.8072104076999995
 37.1148926014000011  0.5752564642000000  6.8764302542999998
  8.9673565755000002 45.5890532658999987  9.8072104076999995
 32.0084812159999998 37.4635598165999966  6.8764302542999998
 30.8875615418000002 35.6658839430999990  9.8072104076999995
 28.8948157379000001 39.4050494666999995  6.8764302542999998
 27.7738960637000005 37.6073735932000019  9.8072104076999995
 25.7811502596999986 41.3465391168000025  6.8764302542999998
 24.6602305854999990 39.5488632432999978  9.8072104076999995
 22.6674847815000007 43.2880287668999983  6.8764302542999998
 21.5465651073000011 41.4903528934000008  9.8072104076999995
 19.5538193032999992 45.2295184171000031  6.8764302542999998
 18.4328996290999996 43.4318425435999984  9.8072104076999995
 43.4667701767999972  0.3595353919000000  6.8764302542999998
 15.3192341508999998 45.3733321937000014  9.8072104076999995
 29.0193623569000003 43.0723076947000010  6.8764302542999998
 27.8984426827000007 41.2746318212000034  9.8072104076999995
 25.9056968786999988 45.0137973447999968  6.8764302542999998
 24.7847772044999992 43.2161214712999993  9.8072104076999995
 49.8186477522000004  0.1438143197000000  6.8764302542999998
 21.6711117263000013 45.1576111214999969  9.8072104076999995
  0.9963732341000000  1.8695822467000001 13.1114013396000004
 52.9323131282000006  1.7976756020000000 16.0421839105000004
  7.3482508094999996  2.0853033189999999 13.1114013396000004
  5.2309580031999996  2.0133966742000000 16.0421839105000004
  4.1100387121999997  3.8110718969000001 13.1114013396000004
  1.9927459058999999  3.7391652520999998 16.0421839105000004
  0.8718266149000000  5.5368404748000000 13.1114013396000004
 -1.2454661914000000  5.4649338299999997 16.0421839105000004
 13.7001283848999993  2.3010243911999999 13.1114013396000004
 11.5828355785999992  2.2291177464000000 16.0421839105000004
 10.4619162875999994  4.0267929690999997 13.1114013396000004
  8.3446234812999993  3.9548863242999999 16.0421839105000004
  7.2237041903000003  5.7525615470000000 13.1114013396000004
  5.1064113840000003  5.6806549021999997 16.0421839105000004
  3.9854920930000000  7.4783301249000003 13.1114013396000004
  1.8681992866999999  7.4064234801000000 16.0421839105000004
  0.7472799956000000  9.2040987027999996 13.1114013396000004
 -1.3700128106000000  9.1321920579999993 16.0421839105000004
 -2.4909321016999999 10.9298672806999999 13.1114013396000004
 -4.6082249080000004 10.8579606358999996 16.0421839105000004
 20.0520059603000007  2.5167454633999999 13.1114013396000004
 17.9347131540000007  2.4448388187000001 16.0421839105000004
 16.8137938630000008  4.2425140412999998 13.1114013396000004
 14.6965010567000007  4.1706073966000003 16.0421839105000004
 13.5755817656000008  5.9682826192000000 13.1114013396000004
 11.4582889594000008  5.8963759743999997 16.0421839105000004
 10.3373696682999991  7.6940511971000003 13.1114013396000004
  8.2200768620000009  7.6221445523000000 16.0421839105000004
  7.0991575710000001  9.4198197750000006 13.1114013396000004
  4.9818647647000001  9.3479131302000003 16.0421839105000004
  3.8609454737000002 11.1455883529000008 13.1114013396000004
  1.7436526673999999 11.0736817081000005 16.0421839105000004
  0.6227333764000000 12.8713569307999993 13.1114013396000004
 -1.4945594299000000 12.7994502860000008 16.0421839105000004
 -2.6154787209000001 14.5971255086999996 13.1114013396000004
 -4.7327715271999997 14.5252188638999993 16.0421839105000004
 -5.8536908181999996 16.3228940866000016 13.1114013396000004
 -7.9709836244999996 16.2509874417999995 16.0421839105000004
 26.4038835357000004  2.7324665357000000 13.1114013396000004
 24.2865907294000003  2.6605598909000001 16.0421839105000004
 23.1656714382999986  4.4582351135999998 13.1114013396000004
 21.0483786319999986  4.3863284688000004 16.0421839105000004
 19.9274593409999987  6.1840036915000001 13.1114013396000004
 17.8101665346999987  6.1120970466999998 16.0421839105000004
 16.6892472436999988  7.9097722693000003 13.1114013396000004
 14.5719544374000005  7.8378656246000000 16.0421839105000004
 13.4510351464000006  9.6355408471999997 13.1114013396000004
 11.3337423401000006  9.5636342024999994 16.0421839105000004
 10.2128230491000007 11.3613094251000000 13.1114013396000004
  8.0955302428000007 11.2894027802999997 16.0421839105000004
  6.9746109517999999 13.0870780030000002 13.1114013396000004
  4.8573181454999999 13.0151713581999999 16.0421839105000004
  3.7363988545000000 14.8128465809000005 13.1114013396000004
  1.6191060481999999 14.7409399361000002 16.0421839105000004
  0.4981867571000000 16.5386151587999990 13.1114013396000004
 -1.6191060491000000 16.4667085140000005 16.0421839105000004
 -2.7400253401999999 18.2643837367000010 13.1114013396000004
 -4.8573181464999999 18.1924770918999990 16.0421839105000004
 -5.9782374374999998 19.9901523145999995 13.1114013396000004
 -8.0955302438000007 19.9182456698000010 16.0421839105000004
 -9.2164495348000006 21.7159208925000016 13.1114013396000004
 -11.3337423411000007 21.6440142476999995 16.0421839105000004
 32.7557611109999982  2.9481876079000000 13.1114013396000004
 30.6384683047000017  2.8762809631000001 16.0421839105000004
 29.5175490136999983  4.6739561857999998 13.1114013396000004
 27.4002562073999982  4.6020495410000004 16.0421839105000004
 26.2793369163999984  6.3997247637000001 13.1114013396000004
 24.1620441100999983  6.3278181188999998 16.0421839105000004
 23.0411248190999984  8.1254933416000004 13.1114013396000004
 20.9238320127999984  8.0535866968000001 16.0421839105000004
 19.8029127217999985  9.8512619195000006 13.1114013396000004
 17.6856199154999985  9.7793552747000003 16.0421839105000004
 16.5647006244999986 11.5770304973999991 13.1114013396000004
 14.4474078182000003 11.5051238526000006 16.0421839105000004
 13.3264885271000004 13.3027990752999994 13.1114013396000004
 11.2091957209000004 13.2308924305000009 16.0421839105000004
 10.0882764298000005 15.0285676530999996 13.1114013396000004
  7.9709836234999996 14.9566610083999993 16.0421839105000004
  6.8500643324999997 16.7543362309999999 13.1114013396000004
  4.7327715261999996 16.6824295862000014 16.0421839105000004
  3.6118522352000002 18.4801048088999984 13.1114013396000004
  1.4945594288999999 18.4081981640999999 16.0421839105000004
  0.3736401379000000 20.2058733868000004 13.1114013396000004
 -1.7436526684000000 20.1339667419999984 16.0421839105000004
 -2.8645719594000001 21.9316419646999989 13.1114013396000004
 -4.9818647657000001 21.8597353199000004 16.0421839105000004
 -6.1027840567000000 23.6574105426000010 13.1114013396000004
 -8.2200768629999992 23.5855038977999989 16.0421839105000004
 -9.3409961541000008 25.3831791204999995 13.1114013396000004
 -11.4582889603000009 25.3112724757000009 16.0421839105000004
 -12.5792082514000008 27.1089476984000015 13.1114013396000004
 -14.6965010577000008 27.0370410535999994 16.0421839105000004
 39.1076386864000014  3.1639086802000000 13.1114013396000004
 36.9903458801000014  3.0920020354000002 16.0421839105000004
 35.8694265891000015  4.8896772579999999 13.1114013396000004
 33.7521337828000014  4.8177706132999996 16.0421839105000004
 32.6312144918000016  6.6154458359000001 13.1114013396000004
 30.5139216855000015  6.5435391911999998 16.0421839105000004
 29.3930023945000016  8.3412144137999995 13.1114013396000004
 27.2757095882000016  8.2693077689999992 16.0421839105000004
 26.1547902970999999 10.0669829916999998 13.1114013396000004
 24.0374974909000017  9.9950763468999995 16.0421839105000004
 22.9165781998000000 11.7927515696000000 13.1114013396000004
 20.7992853934999999 11.7208449247999997 16.0421839105000004
 19.6783661025000001 13.5185201475000003 13.1114013396000004
 17.5610732962000000 13.4466135027000000 16.0421839105000004
 16.4401540052000001 15.2442887254000006 13.1114013396000004
 14.3228611989000001 15.1723820806000003 16.0421839105000004
 13.2019419079000002 16.9700573032999991 13.1114013396000004
 11.0846491016000002 16.8981506585000005 16.0421839105000004
  9.9637298106000003 18.6958258812000011 13.1114013396000004
  7.8464370043000002 18.6239192363999990 16.0421839105000004
  6.7255177133000004 20.4215944590000014 13.1114013396000004
  4.6082249070000003 20.3496878143000011 16.0421839105000004
  3.4873056160000000 22.1473630368999999 13.1114013396000004
  1.3700128096999999 22.0754563921999996 16.0421839105000004
  0.2490935186000000 23.8731316147999983 13.1114013396000004
 -1.8681992877000000 23.8012249699999998 16.0421839105000004
 -2.9891185786999999 25.5989001927000004 13.1114013396000004
 -5.1064113850000004 25.5269935478999983 16.0421839105000004
 -6.2273306760000002 27.3246687705999989 13.1114013396000004
 -8.3446234822999994 27.2527621258000003 16.0421839105000004
 -9.4655427732999993 29.0504373485000009 13.1114013396000004
 -11.5828355795999993 28.9785307036999988 16.0421839105000004
 -12.7037548705999992 30.7762059263999994 13.1114013396000004
 -14.8210476768999992 30.7042992816000009 16.0421839105000004
 -15.9419669678999991 32.5019745043000015 13.1114013396000004
 -18.0592597742000009 32.4300678594999994 16.0421839105000004
 45.4595162617999975  3.3796297524000001 13.1114013396000004
 43.3422234554999974  3.3077231076000002 16.0421839105000004
 42.2213041644999976  5.1053983302999999 13.1114013396000004
 40.1040113581999975  5.0334916854999996 16.0421839105000004
 38.9830920671999976  6.8311669082000002 13.1114013396000004
 36.8657992608999976  6.7592602633999999 16.0421839105000004
 35.7448799698000030  8.5569354861000004 13.1114013396000004
 33.6275871635999977  8.4850288413000001 16.0421839105000004
 32.5066678725000031 10.2827040639000007 13.1114013396000004
 30.3893750661999995 10.2107974192000004 16.0421839105000004
 29.2684557751999996 12.0084726417999992 13.1114013396000004
 27.1511629688999996 11.9365659971000007 16.0421839105000004
 26.0302436778999997 13.7342412196999994 13.1114013396000004
 23.9129508715999997 13.6623345748999991 16.0421839105000004
 22.7920315805999998 15.4600097975999997 13.1114013396000004
 20.6747387742999997 15.3881031527999994 16.0421839105000004
 19.5538194832999999 17.1857783755000000 13.1114013396000004
 17.4365266769999998 17.1138717307000015 16.0421839105000004
 16.3156073859999999 18.9115469533999985 13.1114013396000004
 14.1983145796999999 18.8396403085999999 16.0421839105000004
 13.0773952886000000 20.6373155313000005 13.1114013396000004
 10.9601024824000000 20.5654088864999984 16.0421839105000004
  9.8391831913000001 22.3630841091999990 13.1114013396000004
  7.7218903850000000 22.2911774644000005 16.0421839105000004
  6.6009710940000002 24.0888526871000010 13.1114013396000004
  4.4836782877000001 24.0169460422999990 16.0421839105000004
  3.3627589966999998 25.8146212649000013 13.1114013396000004
  1.2454661904000000 25.7427146202000010 16.0421839105000004
  0.1245468994000000 27.5403898427999998 13.1114013396000004
 -1.9927459069000000 27.4684831980999995 16.0421839105000004
 -3.1136651979000001 29.2661584206999983 13.1114013396000004
 -5.2309580041999997 29.1942517758999998 16.0421839105000004
 -6.3518772952000004 30.9919269986000003 13.1114013396000004
 -8.4691701014999996 30.9200203537999982 16.0421839105000004
 -9.5900893925999995 32.7176955764999988 13.1114013396000004
 -11.7073821987999995 32.6457889316999967 16.0421839105000004
 -12.8283014898999994 34.4434641543999973 13.1114013396000004
 -14.9455942961999995 34.3715575096000023 16.0421839105000004
 -16.0665135871999993 36.1692327323000029 13.1114013396000004
 -18.1838063934999994 36.0973260875000008 16.0421839105000004
 -19.3047256844999993 37.8950013102000014 13.1114013396000004
 -21.4220184907999993 37.8230946653999993 16.0421839105000004
 51.8113938372000007  3.5953508246000001 13.1114013396000004
 49.6941010309000006  3.5234441797999998 16.0421839105000004
 48.5731817397999990  5.3211194024999999 13.1114013396000004
 46.4558889336000007  5.2492127576999996 16.0421839105000004
 45.3349696424999991  7.0468879804000002 13.1114013396000004
 43.2176768361999990  6.9749813355999999 16.0421839105000004
 42.0967575451999991  8.7726565582999996 13.1114013396000004
 39.9794647388999991  8.7007499134999993 16.0421839105000004
 38.8585454478999992 10.4984251361999998 13.1114013396000004
 36.7412526415999992 10.4265184913999995 16.0421839105000004
 35.6203333505999993 12.2241937141000001 13.1114013396000004
 33.5030405442999992 12.1522870692999998 16.0421839105000004
 32.3821212532999994 13.9499622920000004 13.1114013396000004
 30.2648284469999993 13.8780556472000001 16.0421839105000004
 29.1439091559999994 15.6757308698000006 13.1114013396000004
 27.0266163496999994 15.6038242251000003 16.0421839105000004
 25.9056970586000013 17.4014994477000009 13.1114013396000004
 23.7884042523999995 17.3295928030000006 16.0421839105000004
 22.6674849613000013 19.1272680255999994 13.1114013396000004
 20.5501921550000013 19.0553613808000009 16.0421839105000004
 19.4292728640000014 20.8530366035000014 13.1114013396000004
 17.3119800577000014 20.7811299586999993 16.0421839105000004
 16.1910607667000015 22.5788051813999999 13.1114013396000004
 14.0737679603999997 22.5068985366000014 16.0421839105000004
 12.9528486693999998 24.3045737592999984 13.1114013396000004
 10.8355558630999997 24.2326671144999999 16.0421839105000004
  9.7146365720999999 26.0303423372000005 13.1114013396000004
  7.5973437657999998 25.9584356923999984 16.0421839105000004
  6.4764244747999999 27.7561109150999989 13.1114013396000004
  4.3591316684999999 27.6842042703000004 16.0421839105000004
  3.2382123774000000 29.4818794930000010 13.1114013396000004
  1.1209195712000000 29.4099728481999989 16.0421839105000004
  0.0000002801000000 31.2076480708000012 13.1114013396000004
 -2.1172925262000000 31.1357414261000010 16.0421839105000004
 -3.2382118171999998 32.9334166487000033 13.1114013396000004
 -5.3555046234999999 32.8615100040000030 16.0421839105000004
 -6.4764239144999998 34.6591852266000018 13.1114013396000004
 -8.5937167207999998 34.5872785817999997 16.0421839105000004
 -9.7146360117999997 36.3849538045000003 13.1114013396000004
 -11.8319288180999997 36.3130471596999982 16.0421839105000004
 -12.9528481090999996 38.1107223823999988 13.1114013396000004
 -15.0701409153999997 38.0388157375999967 16.0421839105000004
 -16.1910602063999995 39.8364909602999973 13.1114013396000004
 -18.3083530126999996 39.7645843155000023 16.0421839105000004
 -19.4292723036999995 41.5622595382000029 13.1114013396000004
 -21.5465651099999995 41.4903528934000008 16.0421839105000004
 -22.6674844011000012 43.2880281161000013 13.1114013396000004
 -24.7847772074000012 43.2161214712999993 16.0421839105000004
 -2.3663854824000001  7.2626090526000002 13.1114013396000004
 49.5695544116000022  7.1907024078999999 16.0421839105000004
 48.4486351206000023  8.9883776305000005 13.1114013396000004
 46.3313423143000023  8.9164709857000002 16.0421839105000004
 45.2104230233000024 10.7141462084000008 13.1114013396000004
 43.0931302170000023 10.6422395636000005 16.0421839105000004
 41.9722109260000025 12.4399147862999992 13.1114013396000004
 39.8549181197000024 12.3680081415000007 16.0421839105000004
 38.7339988286000008 14.1656833641999995 13.1114013396000004
 36.6167060224000025 14.0937767193999992 16.0421839105000004
 35.4957867313000008 15.8914519420999998 13.1114013396000004
 33.3784939250000008 15.8195452972999995 16.0421839105000004
 32.2575746340000009 17.6172205200000001 13.1114013396000004
 30.1402818277000009 17.5453138752000015 16.0421839105000004
 29.0193625367000010 19.3429890978999985 13.1114013396000004
 26.9020697304000009 19.2710824531000000 16.0421839105000004
 25.7811504394000011 21.0687576758000006 13.1114013396000004
 23.6638576331000010 20.9968510309999985 16.0421839105000004
 22.5429383421000011 22.7945262536000008 13.1114013396000004
 20.4256455358000011 22.7226196089000005 16.0421839105000004
 19.3047262448000012 24.5202948314999993 13.1114013396000004
 17.1874334385000012 24.4483881867000008 16.0421839105000004
 16.0665141475000013 26.2460634094000014 13.1114013396000004
 13.9492213411999995 26.1741567645999993 16.0421839105000004
 12.8283020500999996 27.9718319872999999 13.1114013396000004
 10.7110092438999995 27.8999253425000013 16.0421839105000004
  9.5900899527999997 29.6976005651999984 13.1114013396000004
  7.4727971464999996 29.6256939203999998 16.0421839105000004
  6.3518778554999997 31.4233691431000004 13.1114013396000004
  4.2345850491999997 31.3514624982999983 16.0421839105000004
  3.1136657581999998 33.1491377210000024 13.1114013396000004
  0.9963729519000000 33.0772310762000004 16.0421839105000004
 -0.1245463391000000 34.8749062989000009 13.1114013396000004
 -2.2418391454000002 34.8029996540999988 16.0421839105000004
 -3.3627584364000001 36.6006748766999976 13.1114013396000004
 -5.4800512427000001 36.5287682319999973 16.0421839105000004
 -6.6009705337000000 38.3264434546000032 13.1114013396000004
 -8.7182633400000000 38.2545368099000029 16.0421839105000004
 -9.8391826310999999 40.0522120325000017 13.1114013396000004
 -11.9564754373000000 39.9803053876999996 16.0421839105000004
 -13.0773947283999998 41.7779806104000002 13.1114013396000004
 -15.1946875346999999 41.7060739655999981 16.0421839105000004
 -16.3156068257000015 43.5037491882999987 13.1114013396000004
 -18.4328996320000016 43.4318425434999966 16.0421839105000004
 -19.5538189230000015 45.2295177661999972 13.1114013396000004
 -21.6711117293000015 45.1576111214000022 16.0421839105000004
  4.2345853314999999  0.1438136688000000 13.1114013396000004
  2.1172925251999999  0.0719070241000000 16.0421839105000004
 -5.7291441990000003 12.6556358585000002 13.1114013396000004
 46.2067956950999985 12.5837292137999999 16.0421839105000004
 45.0858764039999969 14.3814044364000004 13.1114013396000004
 42.9685835976999968 14.3094977917000001 16.0421839105000004
 41.8476643066999969 16.1071730142999989 13.1114013396000004
 39.7303715003999969 16.0352663695000004 16.0421839105000004
 38.6094522093999970 17.8329415922000010 13.1114013396000004
 36.4921594030999970 17.7610349473999989 16.0421839105000004
 35.3712401120999971 19.5587101700999995 13.1114013396000004
 33.2539473057999970 19.4868035253000009 16.0421839105000004
 32.1330280147999972 21.2844787480000015 13.1114013396000004
 30.0157352085000007 21.2125721031999994 16.0421839105000004
 28.8948159175000008 23.0102473259000000 13.1114013396000004
 26.7775231112000007 22.9383406811000015 16.0421839105000004
 25.6566038200999991 24.7360159037999985 13.1114013396000004
 23.5393110139000008 24.6641092590000000 16.0421839105000004
 22.4183917227999991 26.4617844817000005 13.1114013396000004
 20.3010989164999991 26.3898778368999984 16.0421839105000004
 19.1801796254999992 28.1875530595000008 13.1114013396000004
 17.0628868191999992 28.1156464148000005 16.0421839105000004
 15.9419675281999993 29.9133216373999993 13.1114013396000004
 13.8246747218999992 29.8414149926000007 16.0421839105000004
 12.7037554308999994 31.6390902153000013 13.1114013396000004
 10.5864626245999993 31.5671835704999992 16.0421839105000004
  9.4655433335999994 33.3648587931999998 13.1114013396000004
  7.3482505273000003 33.2929521483999977 16.0421839105000004
  6.2273312363000004 35.0906273710999983 13.1114013396000004
  4.1100384300000004 35.0187207263000033 16.0421839105000004
  2.9891191389000000 36.8163959489999968 13.1114013396000004
  0.8718263327000000 36.7444893042000018 16.0421839105000004
 -0.2490929584000000 38.5421645269000024 13.1114013396000004
 -2.3663857646999999 38.4702578821000003 16.0421839105000004
 -3.4873050556999998 40.2679331048000009 13.1114013396000004
 -5.6045978620000003 40.1960264599999988 16.0421839105000004
 -6.7255171530000002 41.9937016826999994 13.1114013396000004
 -8.8428099593000002 41.9217950378999973 16.0421839105000004
 -9.9637292503000001 43.7194702605000032 13.1114013396000004
 -12.0810220566000002 43.6475636158000029 16.0421839105000004
 -13.2019413476000000 45.4452388384000017 13.1114013396000004
 -15.3192341539000001 45.3733321935999996 16.0421839105000004
 10.5864629067999996  0.3595347411000000 13.1114013396000004
  8.4691701004999995  0.2876280963000000 16.0421839105000004
 -9.0919029155000004 18.0486626643999983 13.1114013396000004
 42.8440369785000001 17.9767560197000016 16.0421839105000004
 41.7231176875000003 19.7744312423000004 13.1114013396000004
 39.6058248812000002 19.7025245976000001 16.0421839105000004
 38.4849055900999986 21.5001998201999989 13.1114013396000004
 36.3676127839000003 21.4282931754000003 16.0421839105000004
 35.2466934927999986 23.2259683981000009 13.1114013396000004
 33.1294006864999986 23.1540617532999988 16.0421839105000004
 32.0084813954999987 24.9517369759999994 13.1114013396000004
 29.8911885891999987 24.8798303312000009 16.0421839105000004
 28.7702692981999988 26.6775055539000014 13.1114013396000004
 26.6529764918999987 26.6055989090999994 16.0421839105000004
 25.5320572008999989 28.4032741317999999 13.1114013396000004
 23.4147643945999988 28.3313674870000014 16.0421839105000004
 22.2938451035999989 30.1290427096999984 13.1114013396000004
 20.1765522972999989 30.0571360648999999 16.0421839105000004
 19.0556330062999990 31.8548112876000005 13.1114013396000004
 16.9383401999999990 31.7829046427999984 16.0421839105000004
 15.8174209089000009 33.5805798653999972 13.1114013396000004
 13.7001281027000008 33.5086732206999969 16.0421839105000004
 12.5792088115999992 35.3063484433000028 13.1114013396000004
 10.4619160053000009 35.2344417986000025 16.0421839105000004
  9.3409967142999992 37.0321170212000013 13.1114013396000004
  7.2237039080000001 36.9602103763999992 16.0421839105000004
  6.1027846170000002 38.7578855990999998 13.1114013396000004
  3.9854918107000001 38.6859789542999977 16.0421839105000004
  2.8645725196999998 40.4836541769999982 13.1114013396000004
  0.7472797134000000 40.4117475322000033 16.0421839105000004
 -0.3736395776000000 42.2094227548999967 13.1114013396000004
 -2.4909323839000002 42.1375161101000018 16.0421839105000004
 -3.6118516749000000 43.9351913328000023 13.1114013396000004
 -5.7291444811999996 43.8632846880000002 16.0421839105000004
 -6.8500637722000004 45.6609599107000008 13.1114013396000004
 -8.9673565785000005 45.5890532658999987 16.0421839105000004
 16.9383404822000010  0.5752558133000000 13.1114013396000004
 14.8210476758999992  0.5033491685000000 16.0421839105000004
 -12.4546616321000005 23.4416894702999983 13.1114013396000004
 39.4812782619000018 23.3697828256000015 16.0421839105000004
 38.3603589709000019 25.1674580482000003 13.1114013396000004
 36.2430661646000019 25.0955514035000000 16.0421839105000004
 35.1221468736000020 26.8932266260999988 13.1114013396000004
 33.0048540673000019 26.8213199813000003 16.0421839105000004
 31.8839347762999985 28.6189952040000009 13.1114013396000004
 29.7666419699999985 28.5470885591999988 16.0421839105000004
 28.6457226789999986 30.3447637818999993 13.1114013396000004
 26.5284298726999985 30.2728571371000008 16.0421839105000004
 25.4075105816000004 32.0705323597999978 13.1114013396000004
 23.2902177753999986 31.9986257149999993 16.0421839105000004
 22.1692984843000005 33.7963009377000034 13.1114013396000004
 20.0520056780000004 33.7243942929000013 16.0421839105000004
 18.9310863870000006 35.5220695156000019 13.1114013396000004
 16.8137935807000005 35.4501628707999998 16.0421839105000004
 15.6928742897000006 37.2478380935000004 13.1114013396000004
 13.5755814834000006 37.1759314486999983 16.0421839105000004
 12.4546621924000007 38.9736066712999971 13.1114013396000004
 10.3373693861000007 38.9017000265999968 16.0421839105000004
  9.2164500951000008 40.6993752492000027 13.1114013396000004
  7.0991572887999999 40.6274686045000024 16.0421839105000004
  5.9782379978000000 42.4251438271000012 13.1114013396000004
  3.8609451914999999 42.3532371822999991 16.0421839105000004
  2.7400259004000000 44.1509124049999997 13.1114013396000004
  0.6227330942000000 44.0790057601999976 16.0421839105000004
 -0.4981861969000000 45.8766809828999982 13.1114013396000004
 -2.6154790031999999 45.8047743381000032 16.0421839105000004
 23.2902180576000006  0.7909768856000000 13.1114013396000004
 21.1729252513000006  0.7190702408000000 16.0421839105000004
 -15.8174203487000007 28.8347162763000000 13.1114013396000004
 36.1185195453999981 28.7628096315000015 16.0421839105000004
 34.9976002543000035 30.5604848541000003 13.1114013396000004
 32.8803074480000035 30.4885782094000000 16.0421839105000004
 31.7593881570000001 32.2862534320000023 13.1114013396000004
 29.6420953507000000 32.2143467872000002 16.0421839105000004
 28.5211760597000001 34.0120220099000008 13.1114013396000004
 26.4038832534000001 33.9401153650999987 16.0421839105000004
 25.2829639624000002 35.7377905877999993 13.1114013396000004
 23.1656711561000002 35.6658839429999972 16.0421839105000004
 22.0447518651000003 37.4635591656999978 13.1114013396000004
 19.9274590588000002 37.3916525209000028 16.0421839105000004
 18.8065397678000004 39.1893277436000034 13.1114013396000004
 16.6892469615000003 39.1174210988000013 16.0421839105000004
 15.5683276704000004 40.9150963215000019 13.1114013396000004
 13.4510348642000004 40.8431896766999998 16.0421839105000004
 12.3301155731000005 42.6408648994000004 13.1114013396000004
 10.2128227668000005 42.5689582545999983 16.0421839105000004
  9.0919034758000006 44.3666334771999971 13.1114013396000004
  6.9746106694999996 44.2947268324999968 16.0421839105000004
  5.8536913784999998 46.0924020551000027 13.1114013396000004
  3.7363985722000002 46.0204954104000024 16.0421839105000004
 29.6420956330000003  1.0066979577999999 13.1114013396000004
 27.5248028267000002  0.9347913130000000 16.0421839105000004
 -19.1801790652000008 34.2277430821999999 13.1114013396000004
 32.7557608287999997 34.1558364373999979 16.0421839105000004
 31.6348415377999999 35.9535116599999967 13.1114013396000004
 29.5175487314999998 35.8816050153000035 16.0421839105000004
 28.3966294404999999 37.6792802379000022 13.1114013396000004
 26.2793366341999999 37.6073735931000002 16.0421839105000004
 25.1584173431000018 39.4050488158000007 13.1114013396000004
 23.0411245368000017 39.3331421709999987 16.0421839105000004
 21.9202052457999983 41.1308173936999992 13.1114013396000004
 19.8029124394999982 41.0589107488999971 16.0421839105000004
 18.6819931484999984 42.8565859715999977 13.1114013396000004
 16.5647003421999983 42.7846793268000027 16.0421839105000004
 15.4437810512000002 44.5823545495000033 13.1114013396000004
 13.3264882449000002 44.5104479047000012 16.0421839105000004
 12.2055689539000003 46.3081231274000018 13.1114013396000004
 10.0882761476000002 46.2362164825999997 16.0421839105000004
 35.9939732082999981  1.2224190300000000 13.1114013396000004
 33.8766804020999999  1.1505123852000001 16.0421839105000004
 -22.5429377817999992 39.6207698880999999 13.1114013396000004
 29.3930021122000014 39.5488632432999978 16.0421839105000004
 28.2720828212000015 41.3465384658999966 13.1114013396000004
 26.1547900149000014 41.2746318212000034 16.0421839105000004
 25.0338707239000016 43.0723070438000022 13.1114013396000004
 22.9165779176000015 43.0004003991000019 16.0421839105000004
 21.7956586266000016 44.7980756217000007 13.1114013396000004
 19.6783658203000016 44.7261689768999986 16.0421839105000004
 18.5574465293000017 46.5238441995999992 13.1114013396000004
 16.4401537230000017 46.4519375547999971 16.0421839105000004
 42.3458507837000013  1.4381401023000000 13.1114013396000004
 40.2285579774000013  1.3662334574999999 16.0421839105000004
 -25.9056964984000011 45.0137966939999998 13.1114013396000004
 26.0302433957000012 44.9418900491999977 16.0421839105000004
 24.9093241045999996 46.7395652717999965 13.1114013396000004
 22.7920312982999995 46.6676586271000033 16.0421839105000004
 48.6977283590999974  1.6538611745000000 13.1114013396000004
 46.5804355527999974  1.5819545296999999 16.0421839105000004
