Zr S
 1.0000000000000000
    54.0532327003000006    0.0000000000000000    0.0000000000000000
   -27.0266163518000013   46.8114726752000010    0.0000000000000000
     0.0000000000000000    0.0000000000000000   22.9186134248999984
 Zr  S
 434 868
Cartesian
  0.0000030558000000  0.0000140696000000  8.2697147449999999
  3.2580540269000000  1.6899829084000000  8.2793145826999996
  0.1653111888000000  3.6664947666000001  8.2794197066000006
 -2.9303716537000000  5.6412555811000002  8.2971948856999997
  9.6061596348999991  1.4189232680999999  8.3284836687000006
  6.5132564927000001  3.3848280288999999  8.3054349529000007
  3.4206131535000002  5.3582044526999999  8.2973463062999997
  0.3251153299000000  7.3327586390999997  8.3062453286999993
 -2.7761510943999999  9.3040528593000005  8.3297713170000005
 -5.8869343970000001 11.2668224555999998  8.3615971582000004
 15.9523039901000008  1.1934718012000001  8.3952976140000004
 12.8569377095000004  3.1342623702000001  8.3664593065999995
  9.7633756757000008  5.0897286760000000  8.3420922166999993
  6.6701613850000001  7.0560615869000003  8.3288376527000008
  3.5748401678000001  9.0282510704999996  8.3298489558999993
  0.4742666874000000 10.9993964608999999  8.3451755435999999
 -2.6352798251000000 12.9646731971999998  8.3700961410999994
 -5.7568119906000002 14.9200405279999995  8.3978513165000006
 -8.8912916841000005 16.8644566783000016  8.4221670825999997
 22.2993067445999991  1.0246042021999999  8.4400442217999991
 19.1997137600000016  2.9381785234000000  8.4248615890000007
 16.1022504073000015  4.8653630410000002  8.4045299765999992
 13.0065400506000000  6.8081023572000001  8.3829925385999999
  9.9116393573000003  8.7650851004000003  8.3672278805999998
  6.8157660216000000 10.7314115738999991  8.3621756928999993
  3.7159566794000001 12.7007274512000006  8.3701982573000002
  0.6083803524000000 14.6664050214999993  8.3885608548999997
 -2.5103243849000001 16.6237002356000012  8.4109735037999993
 -5.6419699657000004 18.5703137056000003  8.4304977027000003
 -8.7857454038000000 20.5073894036999995  8.4433665757000007
 -11.9378816337000000 22.4379151089000004  8.4492846789999998
 28.6485966181000009  0.8874365718000000  8.4489292041000006
 25.5459694468000009  2.7897810901000000  8.4509013776999993
 22.4434881811999993  4.6956514110000001  8.4472605924999993
 19.3420609291000005  6.6111888416999998  8.4371299647000004
 16.2422053123999994  8.5414362863999997  8.4215318059000008
 13.1439642353000004 10.4870286168000000  8.4057068326000000
 10.0461661199000005 12.4457269979999996  8.3963788106999999
  6.9463789750000000 14.4111964046000001  8.3980277634000000
  3.8408346266000000 16.3761582081000014  8.4103169428999998
  0.7259201758000000 18.3343477969000013  8.4286294575999996
 -2.4009691945000000 20.2822087157999995  8.4454348060999997
 -5.5400495107000003 22.2193749965000009  8.4555612119999992
 -8.6885980733999997 24.1495946930000009  8.4579109948000006
 -11.8419004654000002 26.0764664860999993  8.4533517815000003
 -14.9937048754000006 28.0059478207000012  8.4418040035999997
 34.9998234293000010  0.7370396173000000  8.4226641733999994
 31.8971073278999988  2.6508204667999999  8.4418134595000005
 28.7917034116000004  4.5562569003000002  8.4547711781999997
 25.6845391031999988  6.4595393627000002  8.4616096090999999
 22.5772610128999993  8.3680315717999996  8.4609940858999995
 19.4712631720999987 10.2873554340000002  8.4525430173000000
 16.3677120066000015 12.2220963541999996  8.4392119009000002
 13.2661209140000000 14.1718393348999996  8.4270371765000007
 10.1650043487000001 16.1321726952999995  8.4226197552999995
  7.0607326403000004 18.0955575873000001  8.4289660555000001
  3.9497886846000001 20.0545385924999984  8.4436394652000004
  0.8286786442000000 22.0036280457000011  8.4596296168999991
 -2.3037463467000001 23.9412953325000011  8.4699734086999996
 -5.4458532759000002 25.8692284593999986  8.4720890245000007
 -8.5939464528999991 27.7929595614999982  8.4658488244000001
 -11.7424759874000006 29.7177779955999988  8.4518201899999994
 -14.8858025073999993 31.6489021060000013  8.4289044512999993
 -18.0193444947000003 33.5901053198000028  8.3979816346000007
 41.3515479049999968  0.5369775746000000  8.3620561001000002
 38.2517761820000004  2.4773882451999998  8.3964544667999998
 35.1470009272999988  4.4029244679000001  8.4270973791999992
 32.0375861014000023  6.3163583201000000  8.4510052797000004
 28.9243829718999983  8.2227065348000004  8.4673528900000008
 25.8097641766999999 10.1287096948999995  8.4749681200999998
 22.6958836228999985 12.0415615746999993  8.4737814687000004
 19.5852254768000016 13.9672747544000000  8.4641428974000004
 16.4779160327999996 15.9079682304999999  8.4510146994999999
 13.3738404360000001 17.8623689162000012  8.4417844714000001
 10.2695633399999995 19.8235769341000001  8.4417942679000006
  7.1615378135999999 21.7832713945999998  8.4518500990999996
  4.0463920590000004 23.7347723142999989  8.4668101790999994
  0.9215616894000001 25.6738759792000018  8.4791704654999993
 -2.2123278319000002 27.6012756868999993  8.4842560910000007
 -5.3526777314000000 29.5211984096000002  8.4802320045999995
 -8.4947339460000002 31.4399159614000006  8.4668021781000000
 -11.6338272892999992 33.3635882131000017  8.4436003974999991
 -14.7648272381000005 35.2971196629999966  8.4102682293999997
 -17.8854224717000001 37.2429403908000012  8.3701676474000006
 -20.9952980752000009 39.2012757521000026  8.3298611080999994
 47.7024057112000008  0.2831697169000000  8.2972726126000005
 44.6072295811000004  2.2484697530000002  8.3288387140999998
 41.5065720913000007  4.2012215133000002  8.3672201482999995
 38.3992145834999974  6.1394870638999999  8.4057755966999999
 35.2848583536000007  8.0638254014000008  8.4392586998999999
 32.1648947691000018  9.9775998411000000  8.4640847668999992
 29.0420780747000009 11.8866325684999996  8.4789363039999994
 25.9192216170000016 13.7974090887000003  8.4839993787000001
 22.7996632452000014 15.7171943384000006  8.4790786602000008
 19.6854740339000003 17.6509937989999983  8.4673046445000004
 16.5768817828000010 19.5992134743999991  8.4547867748000005
 13.4709040544000000 21.5573235375000003  8.4489471644999998
 10.3646959366000004 23.5178901101000015  8.4533490497999999
  7.2541987010000000 25.4724677361999987  8.4658613054000007
  4.1369212875999999 27.4153968944000006  8.4802113749999997
  1.0120918325999999 29.3446602313999989  8.4888091315000000
 -2.1193804273999999 31.2628242173000004  8.4890273546999993
 -5.2531482217000001 33.1765270287000007  8.4793678414000002
 -8.3852864574999995 35.0920441521000015  8.4595464696999993
 -11.5114232482999999 37.0157166810000007  8.4285796215000008
 -14.6293085192000003 38.9513742003000019  8.3885430920000008
 -17.7379169206999983 40.9009592892999976  8.3451824971999997
 -20.8387119104999989 42.8633229989999975  8.3063810019000002
 -23.9339877572000006 44.8349233419000015  8.2795290198000000
 50.9605155921999966  1.9765033190000001  8.2792845471999996
 47.8650332505999998  3.9481830108999998  8.3053603481000007
 44.7636153206999978  5.9104955811000002  8.3420714088000008
 41.6539725255000022  7.8599567810000002  8.3830236453999998
 38.5350777299999976  9.7954840340999993  8.4215975702999994
 35.4086142284999994 11.7191194361999997  8.4526485020000006
 32.2771005383999992 13.6345283965000004  8.4735861738999994
 29.1447943539999983 15.5481900371999995  8.4835662120999995
 26.0156942642999987 17.4661000772999984  8.4838768873999992
 22.8934189500999992 19.3953624431000016  8.4750127680999991
 19.7785332935999989 21.3384126639000016  8.4615982345000003
 16.6696551803999995 23.2932328300000009  8.4508590365000007
 13.5637820229999999 25.2539793567999986  8.4492519813999998
 10.4568307344000004 27.2122013189999983  8.4578924828000002
  7.3462846313999997 29.1606650023999983  8.4721355483000007
  4.2295420848000003 31.0949701205000011  8.4842129778000004
  1.1074838290000000 33.0153951327000001  8.4892858212999993
 -2.0172801812999999 34.9267639895999977  8.4844259386999994
 -5.1412612389000003 36.8361484524999980  8.4701243811999998
 -8.2612973533999998 38.7497842989999981  8.4453956690999998
 -11.3749447503999992 40.6736946875999976  8.4109682606000007
 -14.4812474171000005 42.6114000881999999  8.3701056597000001
 -17.5811718719000005 44.5635496937999989  8.3298508646999991
 -20.6759701888000009 46.5285495120999997  8.2972938275000008
 48.0213339951000009  7.6096463585000000  8.3284310896000004
 44.9104684002999974  9.5672748393999996  8.3664426386000006
 41.7886434296000004 11.5122100806999992  8.4045916903000002
 38.6569050790999995 13.4451755200999994  8.4370373164999997
 35.5178523491000036 15.3686412781000001  8.4608643582000003
 32.3768234341999985 17.2874493091999994  8.4747012904000005
 29.2382706064999986 19.2076686314000007  8.4791272512999996
 26.1067463764000003 21.1355059077000007  8.4737138946999995
 22.9844626653999988 23.0750886526000016  8.4609643511999995
 19.8713230227000004 25.0272776312999987  8.4472585077000009
 16.7642306782000006 26.9874985892000012  8.4400502227000000
 13.6596655101000000 28.9490708095000002  8.4433112005000002
 10.5541579073000005 30.9040474048000000  8.4555200180999996
  7.4448717318000002 32.8456220213999970  8.4701030670000002
  4.3317105056000003 34.7724365110999969  8.4793819167999995
  1.2156192442000000 36.6863683803999976  8.4804708322000000
 -1.9004961604999999 38.5931461305999974  8.4722256227999999
 -5.0142142862999997 40.4995745621000012  8.4555423038999997
 -8.1232546316000001 42.4125886583999971  8.4304860630000000
 -11.2270628767999998 44.3370654825000017  8.3978477771000009
 -14.3258198991000008 46.2762720799999983  8.3616413730999994
 45.0435965891999999 13.2183544626000007  8.3952261719999992
 41.9089646306000034 15.1582954489000006  8.4249909832000007
 38.7651987982999984 17.0887063057999988  8.4472482846000005
 35.6169860202000024 19.0134955703999999  8.4616507631999998
 32.4701227473999978 20.9377751255000000  8.4672535107000009
 29.3299662541999986 22.8665567661000004  8.4641192538999999
 26.1998775895000016 24.8051559877999992  8.4526956512000009
 23.0809421117999989 26.7552486824999995  8.4370279179000001
 19.9713472518000010 28.7150718138000016  8.4249486191000003
 16.8672294021000013 30.6790915045000006  8.4222280562999998
 13.7654025172000001 32.6401396453000032  8.4304702284000008
 10.6623019434999993 34.5909643307999985  8.4453512161000006
  7.5566983738999998 36.5271363993999998  8.4595645524999998
  4.4485380835999999 38.4479239476000032  8.4668573336000001
  1.3395480600000000 40.3575293769999988  8.4659070099000004
 -1.7685560750000000 42.2613709466000032  8.4579438540999998
 -4.8739597705000000 44.1666134518999982  8.4433128100000001
 -7.9758417265999997 46.0793977713999965  8.4222749266000001
 42.0164119764000006 18.7994395372999996  8.4400390194000003
 38.8643783898999970 20.7284887317999988  8.4508658184000005
 35.7116533256999986 22.6557737858000010  8.4548125644999992
 32.5644380908999977 24.5870158624999995  8.4510696232000004
 29.4272419019999987 26.5255379429000016  8.4392985746000004
 26.3024100400000016 28.4746734946000011  8.4215884254999995
 23.1890001428000012 30.4339531339999994  8.4045681703999993
 20.0840353355000012 32.3997726571000015  8.3952277297000002
 16.9839645763999982 34.3659374268000022  8.3978378418999995
 13.8852863766999999 36.3255975471000028  8.4109516923999994
 10.7856091981999995 38.2727488555999997  8.4285876902000005
  7.6839772844000001 40.2046814504000025  8.4435671298999999
  4.5807626485000004 42.1217139889999999  8.4518057478999999
  1.4770990848000001 44.0285326385000033  8.4533107220999995
 -1.6258397742999999 45.9310909184999971  8.4493006329000000
 38.9603502093000031 24.3666525878000009  8.4489444483000007
 35.8089789944000003 26.2980963635000009  8.4417329390999996
 32.6665986276999973 28.2366913158000017  8.4269919973000000
 29.5366223064000017 30.1848736688999999  8.4057212524999994
 26.4193652651999997 32.1434559687000032  8.3830112217000003
 23.3125244446000011 34.1100130596000000  8.3664752817999997
 20.2127887832999988 36.0799684643999967  8.3616767645000003
 17.1165652122999994 38.0469499789999972  8.3700890306000009
 14.0208874775000005 40.0051436414999984  8.3885506116999995
 10.9239087812999998 41.9495770488999966  8.4103431876000005
  7.8249294000000003 43.8784692652999979  8.4291303057999993
  4.7240359710000002 45.7933319553999993  8.4418236391000008
 35.9149065825999969 29.9421937261999993  8.4227114275999995
 32.7818321216999990 31.8883015482000012  8.3963738047999996
 29.6615897126000014 33.8451111330999979  8.3670455415999996
 26.5528220582999985 35.8112522541999994  8.3422289844000002
 23.4524698393000008 37.7829977532000001  8.3285863574000008
 20.3571547941000013 39.7555566917000007  8.3297199473999992
 17.2635851319000011 41.7225066386000023  8.3451519186999992
 14.1693669379999996 43.6792207740000009  8.3701946828999993
 11.0728952990000007 45.6215809804999992  8.3980182596000006
 32.9124440926999995 35.5430021195999970  8.3619889148999995
 29.8025846357000006 37.5066714948000026  8.3288411213000000
 26.7015810997000003 39.4783308753000028  8.3053905957000005
 23.6061814084000012 41.4532833032000028  8.2973164704000002
 20.5134545505000006 43.4268611530999991  8.3062800332000002
 17.4202344364000012 45.3933449143999965  8.3298283287999997
 29.9568417137999994 41.1699529877000003  8.2972531282999995
 26.8612766801999996 43.1450077613000005  8.2792598127999995
 23.7686859458000015 45.1215977011000007  8.2795038362000000
  0.0000078548000000 -0.0000003876000000 14.6489013406000002
  6.3506497693000004  0.2828802844000000 14.6214201403999997
  3.0925870823000001  1.9764034562999999 14.6391832976000007
 -0.1654583684000000  3.6665265650999999 14.6393018239000003
 12.7008188963999995  0.5351749536000000 14.5570171507000001
  9.4456179251000005  2.2478126238999998 14.5888407666000006
  6.1877767870999998  3.9479307700000001 14.6123793116999998
  2.9300065128999999  5.6414444552000003 14.6212569465000009
 -0.3252834253000000  7.3330515987000000 14.6131800212999998
 -3.5742668774999999  9.0286507444000001 14.5901228898999999
 19.0506931771000012  0.7321393023000000 14.4964561679999999
 15.7995306472999992  2.4744700123999999 14.5207634958000007
 12.5453737128000000  4.2001144242999997 14.5485105788000002
  9.2886169520999999  5.9104227293999996 14.5734327812999993
  6.0312773365999996  7.6100165184000002 14.5887639771999993
  2.7756524351000000  9.3045708024000007 14.5897808411999996
 -0.4738547615000000 11.0002164306000001 14.5765160294000005
 -3.7141235605000000 12.7015709925000007 14.5521434489000008
 -6.9425779436999999 14.4118459528000002 14.5233108767000001
 25.4007464881000011  0.8804522173000000 14.4693580821999994
 22.1527826650000002  2.6450108716999998 14.4752668474000004
 18.9033416099000000  4.3990589022000002 14.4881163333000007
 15.6516967577999999  6.1378392265999997 14.5076321986999996
 12.3972856648000000  7.8600733106999998 14.5300403096000004
  9.1411692828000000  9.5684769738999993 14.5484069684000001
  5.8858000811000002 11.2683403270000007 14.5564285012999992
  2.6349735553000002 12.9662779610999994 14.5513813199000008
 -0.6072815626000000 14.6680655636000008 14.5356087094999999
 -3.8375965027999999 16.3776437884999986 14.5140708568000001
 -7.0553204304000001 18.0965304676999992 14.4937512501000008
 -10.2623180886000007 19.8240740727000002 14.4785798437000004
 31.7507108062999990  1.0180560657000000 14.4768379911000000
 28.5038264826999992  2.7828665174000000 14.4652956470999996
 25.2584566551000016  4.5502473699000001 14.4607301287999999
 22.0125441911000017  6.3118488181999997 14.4630491127000003
 18.7653816416999994  8.0617935951999993 14.4731707231000009
 15.5150404905000006  9.7958294666000008 14.4899698894999993
 12.2617487607999998 11.5143359138000001 14.5082843030999999
  9.0072712623999998 13.2213372916999994 14.5205746754000007
  5.7552330155000000 14.9230976969999993 14.5222230504999992
  2.5100531710000000 16.6265197783999987 14.5128956147999997
 -0.7239998655000000 18.3368857886000001 14.4970720604000007
 -3.9455652699999999 20.0563144246999983 14.4814772632000004
 -7.1551892185000003 21.7844641452000012 14.4713545509999992
 -10.3569593096000006 23.5183530908999998 14.4677284421000003
 -13.5557503568000008 25.2541368462999998 14.4697081107999992
 38.0995479159999988  1.1898528739000001 14.5206340006999994
 34.8516530623000023  2.9329714346000002 14.4897190971000001
 31.6075751366000013  4.6896207337000000 14.4668001584999999
 28.3663674967000006  6.4539357238999999 14.4528538880999999
 25.1263155842999986  8.2183249345000000 14.4464595784000007
 21.8856283380000001  9.9755296689000001 14.4486202017000007
 18.6413489918000010 11.7194571686000000 14.4589767567000003
 15.3928440444000003 13.4478842253999993 14.4749693378999993
 12.1408490108000002 15.1625514673000001 14.4896400343000007
  8.8883712921000004 16.8692369225000007 14.4959832121000005
  5.6401173411999999 18.5747172676999988 14.4915687625000000
  2.4007939175000002 20.2859028260000009 14.4793992326000005
 -0.8265150865999999 22.0062876848000002 14.4660542375999999
 -4.0416987937000002 23.7365006353999988 14.4576099843999994
 -7.2481416591999999 25.4732334330999990 14.4569959079999997
 -10.4500137059000000 27.2124791158999990 14.4638480082999994
 -13.6528721653999998 28.9491221956999993 14.4768093519000001
 -16.8616187860999993 30.6792626209999995 14.4959543552000003
 44.4469447952999985  1.4181788650000000 14.5887555820999992
 41.1960375176999989  3.1322462650000000 14.5484472461000003
 37.9506122833000035  4.8618441715999996 14.5083436633999998
 34.7106223142999966  6.6066091543000001 14.4749982630999998
 31.4751356935999986  8.3633133880999999 14.4517665949000005
 28.2424358638000008 10.1250493355000000 14.4381923602000004
 25.0095637589999988 11.8846692970000003 14.4343418480000008
 21.7734349764000008 13.6350054556000000 14.4394093093000002
 18.5317219581000003 15.3716549611000008 14.4518144389999996
 15.2841028457999997 17.0937014709000010 14.4667708354000002
 12.0329453199999996 18.8054896517000003 14.4768197303000008
  8.7823508958000005 20.5132677299999990 14.4768307052999994
  5.5377537692000001 22.2242750815999983 14.4676077093999993
  2.3034073888000002 23.9449355930999985 14.4544854498999999
 -0.9196378401000000 25.6759937475000015 14.4448334548999995
 -4.1331581769000003 27.4162683320000014 14.4436177994000001
 -7.3411143950000000 29.1606092982999989 14.4512343548000004
 -10.5486607166000006 30.9035477155999985 14.4675957386000000
 -13.7604501902000003 32.6396611608999976 14.4915150725000004
 -16.9804091636999992 34.3657145146000005 14.5221579484000003
 -20.2107418193999990 36.0799898834999979 14.5565581283000007
 50.7952013203999968  1.6900157165000000 14.6390984014000001
 47.5400975681000020  3.3848020030999999 14.6122246038999997
 44.2902249620000035  5.0889962042999999 14.5734330872999998
 41.0475336501000001  6.8063373527000000 14.5300720112999997
 37.8122622861000011  8.5386795416000005 14.4900214521000006
 34.5832504725999996 10.2841535167000000 14.4590298229999998
 31.3582987194999987 12.0389010154000005 14.4391681710000004
 28.1340674186000008 13.7959679523999998 14.4294097779000001
 24.9071835800999999 15.5487614568999994 14.4298212046999996
 21.6739844925000007 17.2903533301000003 14.4384622154999995
 18.4327207486999995 19.0185385477000004 14.4527811195000009
 15.1847532051999998 20.7350288188000000 14.4652786059000000
 11.9337486478999999 22.4448027968999995 14.4696746342000004
  8.6849835417999994 24.1556063089999995 14.4638434342999993
  5.4434833448999997 25.8736137108000008 14.4513362990999994
  2.2116607569000002 27.6036879086999996 14.4395463643999999
 -1.0106968277999999 29.3454047610000011 14.4346160902000005
 -4.2269107662999996 31.0944922882000014 14.4396342108999995
 -7.4415897969999998 32.8444134012000006 14.4544917783999995
 -10.6589498624000001 34.5894986667000026 14.4793360345999993
 -13.8826559645999996 36.3244410787999996 14.5128340078000004
 -17.1149221900000015 38.0463597382999978 14.5513958981999991
 -20.3563872590000017 39.7552231573000014 14.5897763827000002
 -23.6059506636000016 41.4530890233999969 14.6213567117000007
 50.6329124716000010  5.3583671171000002 14.6213336937000005
 47.3837460971000013  7.0560255552999998 14.5887668993999995
 44.1431761883999982  8.7645775511000004 14.5485106210000001
 40.9119220390999985 10.4858583774999996 14.5076434358000004
 37.6889500650000002 12.2204004024999993 14.4732033216999998
 34.4716717748000008 13.9656109969000006 14.4484560854000001
 31.2561043002999988 15.7163487477999997 14.4341770764999993
 28.0384511859000014 17.4667966157999999 14.4294955847999997
 24.8142749884999994 19.2103426540999997 14.4344298092999992
 21.5807514263000009 20.9423858432999985 14.4465230105000000
 18.3380578302000004 22.6619749607000003 14.4607395803000003
 15.0887101176999998 24.3735622537000012 14.4693710135000000
 11.8377114086000006 26.0829562402999997 14.4677666392000006
  8.5903477929999994 27.7979113140000003 14.4570419385999998
  5.3501722897999997 29.5239579272999997 14.4436415281000006
  2.1182434212999999 31.2632877958000002 14.4347647160000001
 -1.1072731426000000 33.0142303542000022 14.4350213085999997
 -4.3306944614000003 34.7700496348999977 14.4449931995000007
 -7.5552520231999996 36.5243244352000005 14.4659287888999994
 -10.7843975773000000 38.2700973653000034 14.4970036654999994
 -14.0200650490999994 40.0033810859000027 14.5355896009999999
 -17.2631726918000012 41.7216815465000010 14.5765452065000005
 -20.5132721093000008 43.4264276532000011 14.6132452847999996
 -23.7685318354000010 45.1213526561000009 14.6393436757999993
 47.2393241613999990 10.7316191891999999 14.5569729927000004
 44.0105580689999982 12.4456154426999994 14.5207642701000008
 40.7920036303000018 14.1713552317999998 14.4881291339999994
 37.5807689481000011 15.9073571833000003 14.4630672144000005
 34.3728922228999991 17.6507014409999989 14.4463960630999999
 31.1635096492000017 19.3959377410999991 14.4382033380999992
 27.9479636223999997 21.1375967823000011 14.4394186364999992
 24.7227339802000010 22.8702130313999987 14.4485848955999998
 21.4866320060999989 24.5921806986000000 14.4631085828000003
 18.2408135055000002 26.3041414105999998 14.4753072825999993
 14.9897541363000002 28.0119950692000010 14.4785616259999994
 11.7386046889000006 29.7227057656000007 14.4713635249999992
  8.4913866514999992 31.4426727540999984 14.4576739663999998
  5.2505175225000000 33.1768553427000015 14.4449382696999997
  2.0151934152000002 34.9249206297999990 14.4395193622000004
 -1.2170396525000000 36.6828677868000028 14.4438982752000005
 -4.4492968994000002 38.4436836161000031 14.4577238825999999
 -7.6845879196000002 40.2004411707999978 14.4815608407000003
 -10.9244600423999998 41.9461334268999977 14.5140192305000006
 -14.1697322497999991 43.6772458374000010 14.5521731046999996
 -17.4205249066000007 45.3925163899000026 14.5901861437000004
 43.8938514321000000 16.1324191379999995 14.4963450509000005
 40.6863853321999969 17.8623393991999997 14.4753125941000000
 37.4836957738000009 19.5990741644000011 14.4606817460000006
 34.2808658856000008 21.3388511504999983 14.4527306021000008
 31.0726048480000010 23.0765257006000013 14.4517864694000000
 27.8550948815999995 24.8079005961999997 14.4589571398000007
 24.6255140051000012 26.5293059446000008 14.4732423390000005
 21.3844991980000003 28.2412535246000012 14.4881315671999999
 18.1352586566999996 29.9469939387000004 14.4963736420000000
 14.8823161865000007 31.6532271272000010 14.4936547962999995
 11.6302576430000002 33.3663095408999979 14.4815831037000002
  8.3819585013999998 35.0923385871999969 14.4659216988000008
  5.1380361308999998 36.8337736619999987 14.4545154286000006
  1.8975846288000000 38.5888403829000026 14.4513782835000004
 -1.3423218538999999 40.3519697632999979 14.4569775592000003
 -4.5833488452999998 42.1160007139000001 14.4713636759999993
 -7.8270164765999999 43.8733741655999978 14.4936218557000007
 -11.0743749065999992 45.6180722085000028 14.5233905730000004
 40.5904110199000030 21.5575298356000005 14.4693339587000001
 37.3912748174999976 23.2934782552000001 14.4653268849999996
 34.1881019599999973 25.0279215549000007 14.4668195748000006
 30.9762959769000012 26.7568741454999994 14.4750319881999996
 27.7523730869999987 28.4770077585999992 14.4899916461000000
 24.5162519195000002 30.1878088308999999 14.5076386944000006
 21.2697949812999987 31.8915178919000013 14.5207617386999992
 18.0170113821999998 33.5931675986999991 14.5233731876000007
 14.7620784371999996 35.2992369440000004 14.5140273598000000
 11.5085836768000007 37.0158895558000012 14.4970078263000008
  8.2581681435000007 38.7475088536999976 14.4793128863000007
  5.0107586573000003 40.4951452903000018 14.4675564521000002
  1.7646435108000000 42.2550888844999974 14.4638204585000008
 -1.4807915760999999 44.0217921428999972 14.4677657345000004
 -4.7274202659000002 45.7870048261999969 14.4785922790000008
 37.2961650240999987 26.9878076787000012 14.4768040206999995
 34.0874177505999967 28.7158333229999982 14.4894740443999996
 30.8674460653999994 30.4351818614000003 14.5082444395000003
 27.6350325085000001 32.1450435423000016 14.5300386440999993
 24.3913456786000005 33.8468682909999998 14.5485154874999996
 21.1397839410000010 35.5447774657000011 14.5569263718999995
 17.8838696916000011 37.2442490164999995 14.5521274097000006
 14.6273703905999994 38.9515709980000011 14.5355877949999996
 11.3725549314999999 40.6719072424000032 14.5128796424999997
  8.1203877374999998 42.4084507948999985 14.4916225764999993
  4.8703266561999996 44.1605408251000000 14.4768989947000009
  1.6219557220000000 45.9239903731999988 14.4697037759999994
 33.9730073798999967 32.4002094037999981 14.5205853811000001
 30.7426284352000003 34.1106566201999968 14.5484038952999999
 27.5009575035999987 35.8119870390000017 14.5734528061000006
 24.2507540802999983 37.5076011757000032 14.5888992419000001
 20.9947968463999999 39.2019283911999992 14.5900275925000003
 17.7370432047000008 40.9010457219999992 14.5763808407000006
 14.4799248002999992 42.6102501977999992 14.5515601748000005
 11.2251619964000007 44.3340481242000024 14.5222368768999992
  7.9732392052999996 46.0743261543000031 14.4959092742000006
 30.6016621427999986 37.7830541259000015 14.5887777388999993
 27.3520368597999983 39.4785934643999994 14.6123358844000002
 24.0964768541000005 41.1702070077000002 14.6212874875000001
 20.8384237743000007 42.8634015502999972 14.6132349511000008
 17.5804347720000003 44.5631362385000003 14.5897689421999992
 14.3249144288999997 46.2745137261999986 14.5566227182999999
 27.1920994407000016 43.1450660571999975 14.6391109436000004
 23.9340031856000017 44.8350405683000020 14.6393440014999996
 20.6757974601000001 46.5283941572999993 14.6213611100000005
 -0.9769289992000000  1.8852087131999999  6.8156315898999997
 51.9406534363999981  0.0970903534000000  9.7334866947999998
  2.2874069509999999  3.5772833786999998  6.8249703104000004
  1.1402261163000000  1.7810924609000001  9.7335998079999992
 -0.8130271212000000  5.5572194933999999  6.8339508158999998
 -1.9458732328999999  3.7561988578999999  9.7428116377999991
 -3.9179682950000001  7.5322390030999999  6.8582264783999998
 49.0162983600000004  5.7277766482999999  9.7683675737000009
  8.6441080253999996  3.3008700859000002  6.8651033096000003
  7.4790038662000002  1.4981927520000000  9.7684819438999995
  5.5472799858000004  5.2729405554000000  6.8502246680000001
  4.3917159743000003  3.4678718786000000  9.7516949427000004
  2.4473545411000002  7.2505236282999999  6.8509473675999999
  1.3051356879000000  5.4419205800999997  9.7520038583000002
 -0.6576089926000001  9.2262868127999997  6.8670024660999998
 -1.7853814944999999  7.4157368582999998  9.7691382938999993
 -3.7701336931000000 11.1942211872000001  6.8939054344999997
 -4.8842531127999997  9.3850643894000001  9.7986939166999996
 -6.8928793090999996 13.1498125642999995  6.9251214253000004
 46.0578418942999974 11.3458334241000003  9.8338697584000005
 14.9893371810999998  3.0682522995000001  6.9287447645000002
 13.8235230931000004  1.2513327483000001  9.8338958632000004
 11.8950338854000002  5.0150018425000003  6.9036628421000001
 10.7297940358999995  3.2006973682000002  9.8044505517000005
  8.7989066753999996  6.9767711071000003  6.8858514780000002
  7.6402126708000004  5.1626615220999996  9.7837089188000004
  5.6997887245000003  8.9480103008000000  6.8802321503000003
  4.5520977431000000  7.1329243794000003  9.7767855536999999
  2.5957645357999999 10.9222310017000002  6.8885353821999997
  1.4615695041000001  9.1057483168999998  9.7854343371999999
 -0.5155710967000000 12.8916443422999993  6.9083293962000001
 -1.6362478825000000 11.0768151145000004  9.8072797305999995
 -3.6369614853000001 14.8506111207000000  6.9335655159999998
 -4.7460006297000001 13.0414794849000000  9.8361326352000003
 -6.7701222630000002 16.7964546568999999  6.9575326253999998
 -7.8704763560000002 14.9967817404999995  9.8651732312000000
 -9.9144266765999998 18.7306284279000010  6.9758938124999998
 43.0439208681000025 16.9416725083000017  9.8892603113999993
 21.3263871661000017  2.8946984539999998  6.9776157822000000
 20.1766609784999993  1.0636284601999999  9.8892825504000008
 18.2313241437999984  4.8117643302999999  6.9621038761999996
 17.0748540601000016  2.9832689894000000  9.8681940513999997
 15.1363385551000000  6.7435385926000002  6.9428430313999998
 13.9770003209000002  4.9190513113999996  9.8441489447000006
 12.0398408453000005  8.6917059652000006  6.9251515021000003
 10.8834831610999991  6.8704910979999996  9.8230872460000001
  8.9408912701999999 10.6539981515999997  6.9152710738999996
  7.7926772549000001  8.8339074338000003  9.8114398916999992
  5.8378275366999999 12.6237663998999992  6.9171123186000001
  4.7013249299000002 10.8036302064999994  9.8129298845000008
  2.7284025867000001 14.5929122051999993  6.9303558029000003
  1.6045011846999999 12.7738841219000001  9.8272427096000001
 -0.3899753654000000 16.5540974017000018  6.9503543863999999
 -1.5029590855999999 14.7396575539000008  9.8497801330999994
 -3.5195116508000002 18.5029531457000012  6.9701416218999999
 -4.6247519649999997 16.6971152328000016  9.8735606421999993
 -6.6607744352999996 20.4395439038000006  6.9843301469999997
 -7.7614354597000004 18.6447156812999992  9.8925731049000003
 -9.8113916489000008 22.3676338347000012  6.9913315715000000
 -10.9102108663999999 20.5835168979000009  9.9046230119000001
 -12.9663979180000002 24.2916189564000007  6.9914280431000000
 39.9870591574999992 22.5172134759999985  9.9098744096000004
 27.6652593011999990  2.7567531121000002  6.9918743418000000
 26.5334808367999990  0.9231283774000000  9.9098876012999995
 24.5657770816000003  4.6597996726000002  6.9932736781999996
 23.4280859067000016  2.8233170841000002  9.9062589578000004
 21.4667099657000016  6.5673438179000003  6.9882713836999999
 20.3229428307999989  4.7321363849000004  9.8966497681999996
 18.3682482046000004  8.4857087407999998  6.9767385050000001
 17.2196951554999984  6.6551463144999996  9.8811340072000000
 15.2695608262999993 10.4202518554000001  6.9618847172000002
 14.1203270541000006  8.5944826666999994  9.8631313298999999
 12.1694072689000006 12.3710745639000006  6.9496848228000001
 11.0251018102000007 10.5490506903999997  9.8491603054999999
  9.0664757534000007 14.3340275235999997  6.9460335746000004
  7.9315533899000004 12.5134199520999996  9.8448873091000006
  5.9587468712999998 16.3010726169000009  6.9532336054000004
  4.8352546168000003 14.4813602120000002  9.8525380488999996
  2.8438523997999998 18.2637367827999988  6.9687959089999998
  1.7306729819000000 16.4465606053999984  9.8694627699000002
 -0.2805013928000000 20.2153511252999998  6.9861206733000003
 -1.3869359355999999 18.4042806978000009  9.8892716977999999
 -3.4157804031999999 22.1541075559000014  6.9986914636000002
 -4.5192450794000001 20.3519361429999996  9.9050101505000008
 -6.5610256050000002 24.0824692654999986  7.0034927675000000
 -7.6644124137000000 22.2904564630000017  9.9132260028000001
 -9.7125457186999995 26.0057057958000009  7.0004686131999998
 -10.8180760399999993 24.2229962707999995  9.9141191497999994
 -12.8642714728000005 27.9285423924999989  6.9901624462000003
 -13.9747959030000004 26.1552884793999993  9.9083068477000005
 -16.0103798224999991 29.8560390387999988  6.9719000520999996
 36.9247619447000019 28.0915345651999999  9.8954369408999998
 34.0081941763000017  2.6096915942000001  6.9707137977000002
 32.8922169013999977  0.7878138174000000  9.8954827267999992
 30.9069499046000011  4.5215892753000002  6.9892774716000003
 29.7860871839000012  2.6908475655999999  9.9085894507999992
 27.8027658136000007  6.4257029804999997  7.0010636324000002
 26.6776723026999996  4.5902385922000004  9.9159858913000001
 24.6975685961000018  8.3286091791000008  7.0054541297000004
 23.5676420078000000  6.4933303656000003  9.9169967046000007
 21.5930429347999997 10.2382361422999999  7.0018772585000004
 20.4578481508000003  8.4065021305999998  9.9106872711000005
 18.4896459608000008 12.1606743619000000  6.9915290389000004
 17.3509640892000014 10.3347973242000002  9.8981167772000003
 15.3865822513000001 14.0998345936000007  6.9788546133000002
 14.2489992978999993 12.2792152625999993  9.8839472432999997
 12.2825783463999993 16.0546778177000000  6.9706937002000000
 11.1513825689000008 14.2367917936000001  9.8751471172999992
  9.1756187736000001 18.0181080702000003  6.9719016272000003
  8.0544476682999999 16.2012105710999990  9.8764991084999991
  6.0635302788000001 19.9812438400000012  6.9827169111999998
  4.9525138885000004 18.1652080281999986  9.8882026090000004
  2.9445341785000001 21.9358612533999988  6.9984348730999999
  1.8401063508000000 20.1226877952999992  9.9052337439000002
 -0.1835729637000000 23.8772626810000013  7.0115998962999999
 -1.2859996645000000 22.0699019973999988  9.9200748728000008
 -3.3208849209000002 25.8067192886000001  7.0174418484999999
 -4.4250589909000002 24.0062476794999995  9.9276327776999995
 -6.4651394915999996 27.7279523258000005  7.0146692914999997
 -7.5735820816999997 25.9358181495999993  9.9267237421000001
 -9.6113819261000000 29.6471001005999995  7.0031132013999997
 -10.7266430984000003 27.8635182436999997  9.9179367478000007
 -12.7541667828000005 31.5696453908999999  6.9826596082999997
 -13.8785734550999997 29.7954138734999994  9.9012996869999998
 -15.8888639623000003 33.5004866087000011  6.9531817458000003
 -17.0231988162000007 31.7354990217999990  9.8764934110000002
 -19.0130072769999998 35.4438462135999970  6.9170367080000004
 33.8977658132999977 33.6857936207999984  9.8448135226000009
 40.3560325464000016  2.4161133698000001  6.9152614059999999
 39.2504575582999991  0.6121991111000000  9.8448670888999992
 37.2548369925999978  4.3535030810000004  6.9497381022000004
 36.1480639719000010  2.5389879636999999  9.8752035182999993
 34.1491479142000003  6.2752945727000000  6.9788965091000001
 33.0396665308999999  4.4521793084999999  9.9000878167999993
 31.0389585779000008  8.1850027929000007  7.0003878024999997
 29.9266487908999999  6.3568440013999998  9.9180395071999996
 27.9263631478999983 10.0889355803999994  7.0131732265000002
 26.8101385607999987  8.2595869378000000  9.9285203626000005
 24.8137465952000014 11.9944447697999994  7.0168382706000001
 23.6926038665999990 10.1678176668999996  9.9306248089999993
 21.7035087695999991 13.9089691241000004  7.0115515429000004
 20.5767571875999984 12.0873996679999998  9.9241423534000006
 18.5954450830000013 15.8384571491999999  7.0003866062000002
 17.4664105324000012 14.0223556986000002  9.9118633838000001
 15.4890110370999992 17.7845632436999992  6.9892988913999998
 14.3624359243999997 15.9721920719000003  9.9000593720999994
 12.3818245242000007 19.7433302915999995  6.9847534141000001
 11.2627915377000001 17.9320306997000003  9.8954356767000000
  9.2719018306999992 21.7064383202000002  6.9901507092999999
  8.1623082351999994 19.8945956519000013  9.9013202307999997
  6.1572089969999997 23.6642371221000012  7.0031014374999998
  5.0548712440000001 21.8525489206999985  9.9153773284000000
  3.0359974804999998 25.6098961060000008  7.0174476360000000
  1.9363231175000000 23.8002983732999986  9.9304900705999994
 -0.0926702379000000 27.5416233282000000  7.0262942365000001
 -1.1946946458000001 25.7357284831000008  9.9401141755999998
 -3.2277705230999998 29.4620996507999990  7.0265761948999996
 -4.3356321323999998 27.6614041815000000  9.9410451115999994
 -6.3657482537999996 31.3773676845000011  7.0175072996000001
 -7.4823575166999996 29.5830513663999994  9.9328077053000001
 -9.5019698899999998 33.2934627723999981  6.9983943788999996
 -10.6292064477999997 31.5075701861999988  9.9153367008999993
 -12.6316858928000002 35.2167774457999982  6.9687554681000003
 -13.7714024856999995 33.4398331872000014  9.8881436630999993
 -15.7530145376000004 37.1521396325999973  6.9303141908999999
 -16.9030248163000003 35.3832970051999993  9.8524806101000006
 -18.8655956216999989 39.1023384363999966  6.8885451642000000
 -20.0210984743000004 37.3380814136000012  9.8128876798999993
 -21.9711900763999992 41.0667626748999979  6.8508891776000000
 30.9276914470000008 39.3027425040000011  9.7767972145000002
 46.7129241808000017  2.1676066671999998  6.8501424183999999
 45.5998028942999980  0.3759028727000000  9.7767855315999999
 43.6116310518999981  4.1317335035999996  6.8858543888000003
 42.5063965611999990  2.3317171052000001  9.8114559116999995
 40.5060395850000035  6.0809905691999999  6.9251744124999997
 39.4049082988999970  4.2734968389999999  9.8492042130000002
 37.3942943807999981  8.0137195752999997  6.9619239789999998
 36.2946252941000012  6.2004044188999998  9.8840011087999997
 34.2771177433000034  9.9322119031000007  6.9915392869000001
 33.1763677862999984  8.1152033328000002  9.9118994743000002
 31.1560989038999985 11.8412962190000002  7.0114722864000001
 30.0524121643999997 10.0232747162999996  9.9308345393999993
 28.0342439277999986 13.7477005942999995  7.0212961050000002
 26.9261969508999996 11.9312623228000003  9.9401629059999994
 24.9152605409000003 15.6592275643000001  7.0213818291000001
 23.8009066561000004 13.8463085701999997  9.9398159517000000
 21.8006729650000004 17.5821187819000002  7.0132067500000002
 20.6807733768000013 15.7738423250000004  9.9309371857999995
 18.6901191402999984 19.5208356063000004  7.0010183654000002
 17.5683989539000009 17.7158253433999988  9.9180402952000009
 15.5812952537000005 21.4742515143999988  6.9918742531999998
 14.4639729308000007 19.6705529970000015  9.9085687091000008
 12.4726435185000000 23.4364110212000014  6.9914199640000003
 11.3628479610999999 21.6313123322999985  9.9083078027999996
  9.3612729673999997 25.3973281266999997  7.0004821045999996
  8.2594170303999999 23.5902073508999983  9.9179469807000000
  6.2460524072999997 27.3486021762000000  7.0146823535999996
  5.1480424420000004 25.5401283968999984  9.9328052660000008
  3.1257242229000002 29.2851311683000013  7.0264886752000004
  2.0257295904000001 27.4771307289999989  9.9452142066999993
  0.0000877504000000 31.2078568686999986  7.0312760130000003
 -1.1057547258000000 29.4016607169000004  9.9499675854999996
 -3.1286524861000000 33.1209946764000023  7.0263892094999996
 -4.2436188846000000 31.3185778526999989  9.9453482572999992
 -6.2563976958999996 35.0317940601999993  7.0116846414999996
 -7.3832009034999997 33.2344988466999993  9.9305556985999992
 -9.3793407601999998 36.9467668607000022  6.9860636892999999
 -10.5200354214999994 35.1565007788000017  9.9051634249999996
 -12.4954497498000006 38.8721390335999999  6.9503418874999996
 -13.6487990079999992 37.0893624377999984  9.8694172620000007
 -15.6042312047999996 40.8122176135000032  6.9083413233000002
 -16.7663776021999986 39.0349387587000010  9.8272370325999994
 -18.7076466570999997 42.7677780337999991  6.8670284554999999
 -19.8715795501000017 40.9927281884000010  9.7854633672000002
 -21.8073512140000005 44.7369015016999967  6.8340036635999999
 -22.9663234689999989 42.9601163911000015  9.7520734299999994
 -24.9054382586999985 46.7148946446000011  6.8156523492999996
 27.9988918216999991 44.9334035135999983  9.7335114952000001
 49.9761561401000023  3.8644976196999998  6.8334439087999996
 48.8539840631000004  2.0694069712999998  9.7515409841000000
 46.8724615900000003  5.8355924316000003  6.8650113332000000
 45.7620555542000034  4.0353247735000002  9.7836964605999999
 43.7625730788000027  7.7939136548999999  6.9036582220999998
 42.6614588161000015  5.9901240855999998  9.8231142354000003
 40.6450242786999993  9.7366765870999998  6.9428887898999996
 39.5500550464999989  7.9313160241000000  9.8631956164000005
 37.5203392976000032 11.6644876425999993  6.9767818054999999
 36.4275904432000033  9.8590237777999992  9.8981690843999992
 34.3902841725000030 13.5809918747000005  7.0018045332999996
 33.2968109671000008 11.7764402657999998  9.9240903192999994
 31.2589125002000010 15.4920504430000001  7.0165193904000001
 30.1615667023999983 13.6892388863000001  9.9395623020000006
 28.1300848503999994 17.4047023319999994  7.0213005131999999
 27.0267698026999987 15.6039874040999997  9.9448114916999995
 25.0072133223000002 19.3249540716000006  7.0167615105000003
 23.8963054745999983 17.5271675436000010  9.9402180383999994
 21.8906502719000002 21.2584695920000009  7.0053472394999998
 20.7745866041999996 19.4634472442999993  9.9285265215000003
 18.7792478436999986 23.2070861788000009  6.9933080016000000
 17.6631194351000005 21.4129240152999998  9.9160028097000001
 15.6703276445000004 25.1671934212999986  6.9872840008999999
 14.5592260953999997 23.3711722030999987  9.9098735634999997
 12.5614129475999992 27.1306965672999993  6.9913051944999998
 11.4579554494000000 25.3312420122999988  9.9141076326000004
  9.4511553998999993 29.0882122581000004  7.0034870035000001
  8.3523858799999999 27.2846422988999997  9.9267422491000001
  6.3378971350000004 31.0320582332000008  7.0174660928000003
  5.2390395222999997 29.2260022243999984  9.9410332969000006
  3.2212162268000002 32.9604526867999965  7.0264497186000003
  2.1170909464999998 31.1527309529999989  9.9501135065999993
  0.1021417614000000 34.8757206224000029  7.0268966189000004
 -1.0111335918000000 33.0683403677000030  9.9501938297999999
 -3.0169536082000001 36.7841213952999979  7.0176149176999996
 -4.1416057699000000 34.9782930860000008  9.9402999807000008
 -6.1327680497000001 38.6926131505000015  6.9986290728000000
 -7.2706892876999998 36.8902888548999996  9.9201007644000008
 -9.2428481753000007 40.6080774468000030  6.9701227301999999
 -10.3945830190000006 38.8105025213999966  9.8892611155000001
 -12.3470889815000007 42.5359196423000014  6.9335648383999997
 -13.5103185366999998 40.7431680931000031  9.8497804779999996
 -15.4470899059000004 44.4794083921999999  6.8939770225999997
 -16.6155801280000013 42.6900901785000002  9.8073126238999997
 -18.5444391505999988 46.4384230496999990  6.8583205423000004
 -19.7117437423000013 44.6497005156999975  9.7692199587000008
  5.3852206999999996  1.5984975883000001  6.8335635847000002
 -22.8007323896000003 46.6184896572000014  9.7428921911999993
 47.0229484059999976  9.4966160384999991  6.8920394499000004
 45.9164962186000025  7.6918901166999998  9.8044179818000003
 43.9014221884999998 11.4469788090000009  6.9287293596000001
 42.8047770399999976  9.6448776740000000  9.8441892279999994
 40.7706174360000020 13.3828715168999999  6.9621047345999996
 39.6799317430999992 11.5851422819999996  9.8811381951000001
 37.6325029539000013 15.3069509010000004  6.9881843367999998
 36.5441855971999985 13.5138863148000006  9.9106187241000008
 34.4918778066000016 17.2244321101999986  7.0052180418000001
 33.4014781113000012 15.4344453746999992  9.9304829756000004
 31.3527606849000016 19.1404772980000004  7.0130814754999999
 30.2575471162999996 17.3529794961000015  9.9400173846000008
 28.2203392053999984 21.0612197011000006  7.0116209332999997
 27.1173018233999983 19.2760949866000004  9.9397021501000005
 25.0965548257999984 22.9923001973000005  7.0019099014000004
 23.9858392153000004 21.2093379179999992  9.9306337562000007
 21.9807770677000001 24.9371836002999991  6.9881853911000000
 20.8661086536000013 23.1547529969999992  9.9170257302000007
 18.8703060379999989 26.8950934601999982  6.9775869858000004
 17.7576189900000010 25.1105777544999995  9.9062612211999994
 15.7627171465000000 28.8599719899000000  6.9758709616000001
 14.6559064402000008 27.0711584131000009  9.9045786564000000
 12.6558976862999994 30.8231881602999991  6.9842661665000003
 11.5548132915000004 29.0286653022000003  9.9131592303999998
  9.5485249321999994 32.7762401370000021  6.9986163807999997
  8.4492773224000004 30.9759928888000005  9.9277003603999994
  6.4399740732000001 34.7136881909000010  7.0116601104000003
  5.3362419842000000 32.9088658710999979  9.9402662987999992
  3.3296379097000002 36.6356137500999992  7.0176141493999999
  2.2178656685000000 34.8272760406999993  9.9454438903000000
  0.2189490206000000 38.5462652171000002  7.0148037671000001
 -0.9034556328000000 36.7355543170999965  9.9412141256000002
 -2.8900253075000002 40.4521772153999990  7.0035320606999996
 -4.0240080279999999 38.6406443090000025  9.9277664972000004
 -5.9949709053999998 42.3601675510000035  6.9843144698000001
 -7.1417135324999999 40.5492996533999985  9.9049978554999996
 -9.0953542046999996 44.2764575054999980  6.9575564772999998
 -10.2540942495999996 42.4681015873999996  9.8735544201999996
 -12.1920687014000002 46.2060374150999991  6.9251742782000001
 -13.3593074637000004 44.4009068530999969  9.8361579707000004
 11.7394971241999997  1.3401046004999999  6.8920649731000001
 -16.4567693527999985 46.3487807318999998  9.7987246642999999
 44.0264712112999987 15.0916303016000004  6.9544235480000003
 42.9323737432000030 13.2955593939999996  9.8682361879999991
 40.8833396022999978 17.0217717453000006  6.9776138954000002
 39.7937038166000008 15.2339168266999998  9.8967313154000003
 37.7349556976000002 18.9446205405000008  6.9933111056000001
 36.6461467382999970 17.1634389228000011  9.9169889619999996
 34.5871303788999995 20.8648979210000007  7.0010023801000001
 33.4951254954000035 19.0883124942999984  9.9284240758000006
 31.4452819328000004 22.7881186898999992  7.0004347272000000
 30.3467094603000014 21.0144573827000016  9.9308690664999997
 28.3131267573000009 24.7186156178999994  6.9916200692999997
 27.2061574764000014 22.9476234454999997  9.9241845502999997
 25.1914157811999999 26.6612032280999998  6.9768012978999998
 24.0778294803999984 24.8911960303999997  9.9106726172999995
 22.0780651878999983 28.6169158010000011  6.9621090537999999
 20.9634535640999999 26.8453768860000004  9.8967188980999996
 18.9702839513999990 30.5822206355000006  6.9544394519999999
 17.8594172885000013 28.8062345863000004  9.8892743464000006
 15.8656105235999991 32.5500968756999995  6.9575301451999998
 14.7605584148000002 30.7673194240000001  9.8926041797999993
 12.7624298834999994 34.5119601589000027  6.9701205911999997
 11.6609885917000007 32.7217034402000024  9.9049879634000000
  9.6598668697000001 36.4607692391999976  6.9860483947000001
  8.5566248060000003 34.6627835932999986  9.9200797015000006
  6.5572713324000000 38.3935488879000033  6.9984193045999996
  5.4469193646000003 36.5881297489999966  9.9306294034999993
  3.4541068622000002 40.3114828363000015  7.0032477091000001
  2.3341620494000002 38.4997898988000031  9.9328841947999997
  0.3511070859000000 42.2198642357000011  7.0005181041000002
 -0.7789116373000000 40.4025343505999999  9.9267655611999999
 -2.7500010795000001 44.1246501373000015  6.9912977502000002
 -3.8904453347999999 42.3039063249999998  9.9132237642999996
 -5.8481823253999998 46.0324347697999983  6.9758854584999996
 -6.9989373059000002 44.2108327950000017  9.8926234582999992
 18.0831714034000015  1.1376410458999999  6.9544314678000001
 -10.1037298455000002 46.1291485769000005  9.8652165037999993
 40.9869360929000024 20.6569804457000004  6.9872907940999998
 39.8942493378999998 18.8776230427999998  9.9062597575000009
 37.8332360018000031 22.5805112180999998  6.9918758081999997
 36.7392421541999994 20.8082661219999991  9.9160272507999991
 34.6839448671999975 24.5052260444000005  6.9892966229000004
 33.5847884504999996 22.7387732717999995  9.9180443765999993
 31.5440770065000002 26.4363075006999999  6.9789261898000001
 30.4370879623000015 24.6738694691000013  9.9118974405000007
 28.4159566225999995 28.3774758467999995  6.9619385337999997
 27.3012369538999984 26.6177019239999986  9.8981716201999994
 25.2985098864999998 30.3312909174999987  6.9428523095000001
 24.1802192120000008 28.5712482100000003  9.8811457643999994
 22.1891687859000015 32.2962841618000027  6.9287385273000002
 21.0727738970000011 30.5327320933999999  9.8682256561999999
 19.0850305750000011 34.2672012087000013  6.9251612822000004
 17.9742783696999986 32.4970411456000008  9.8651956264000003
 15.9841099793999994 36.2364438919999969  6.9335597673000002
 14.8788969116000001 34.4577408134000009  9.8735450771999993
 12.8853316656000008 38.1967665600000004  6.9503343967999998
 11.7815323081999992 36.4081399272999988  9.8892349644999999
  9.7878029866999992 40.1424005470000012  6.9687581470000000
  8.6797766143999997 38.3437414182999987  9.9051663342000005
  6.6903859370000003 42.0721144504000009  6.9827796471000001
  5.5741930978000003 40.2628511839999987  9.9153034361000003
  3.5922928680999999 43.9879149705000003  6.9901562644000004
  2.4671083775999998 42.1691921521999973  9.9179614550000004
  0.4938663951000000 45.8948198905999973  6.9914133512000003
 -0.6397609053000000 44.0686258177000028  9.9141157521000007
 24.4227113859999996  0.9872902030000000  6.9873054574999998
 -3.7456195766999998 45.9682847373000030  9.9045954370999993
 37.9339090082999988 26.2168025713000006  6.9847508603000001
 36.8298178013999973 24.4499973206999996  9.9085558980999995
 34.7889367933000031 28.1471381015000013  6.9707440195999997
 33.6776241724000016 26.3871487816000005  9.9000445946000006
 31.6555297234999991 30.0868531280999996  6.9496577177000001
 30.5361862719999984 28.3318349587999982  9.8839848907000007
 28.5340017641999992 32.0386690670000007  6.9250858247000000
 27.4095709425999985 30.2856182772999993  9.8631584204999996
 25.4222691263999998 34.0025812666999983  6.9037272800000000
 24.2981894495999988 32.2475623743999975  9.8441762523000005
 22.3175003841999988 35.9748114148000013  6.8921221691000003
 21.1985501169999999 34.2143514519000007  9.8338730890000008
 19.2172436464000000 37.9494008694000016  6.8939354882000003
 18.1053566179000001 36.1805845359999978  9.8361332627000007
 16.1198817235000007 39.9190560341999969  6.9083206701000002
 15.0131618926999995 38.1401773492999965  9.8497583101000004
 13.0244942830999992 41.8779028687999997  6.9303497784000001
 11.9180717543999997 40.0869371134999994  9.8694227757000004
  9.9299401107000005 43.8213247397999979  6.9532947718999996
  8.8187420629000002 42.0178061646999979  9.8882164001999993
  6.8346232987000004 45.7487198198000016  6.9719731910000000
  5.7160852238000004 43.9328363455000002  9.9013771938000001
 30.7640836158000006  0.8513005427000000  6.9848025712000004
  2.6118510284999998 45.8363193124000006  9.9083008494999998
 34.9069984306999999 31.7925965991999995  6.9460161039999999
 33.7802608639999988 30.0356243609000018  9.8751453809999994
 31.7828217007000013 33.7413206232999983  6.9151631241000002
 30.6497958419000014 31.9889222734000001  9.8491009245000001
 28.6691055683000009 35.7030342950000019  6.8858520289999996
 27.5349960998999990 33.9507892100000035  9.8230794222999993
 25.5632622906999991 37.6749996512999985  6.8651415490999996
 24.4336181132000014 35.9188864361999975  9.8045143498999998
 22.4625980506000005 39.6522014318999965  6.8582944577999996
 21.3409929132999991 37.8891904620999966  9.7986842588999998
 19.3651870825000003 41.6289648192000001  6.8669562220999998
 18.2519127688999987 39.8560084516999993  9.8072343078999999
 16.2697030236000018 43.5983997593000012  6.8885291170000000
 15.1618064024999999 41.8141033915999998  9.8272187023999997
 13.1751041188000002 45.5553047981000034  6.9170958703999998
 12.0676693635000003 43.7582250306999967  9.8525373479000002
 37.1062999362999975  0.6847977817999999  6.9460513988999999
  8.9686820259999998 45.6862266691000016  9.8765584811000000
 31.9258580965000007 37.4011959699000016  6.8801353208000000
 30.7807288555000014 35.6457099742999972  9.8113980113999997
 28.8195822007000011 39.3708108555999985  6.8502073273999997
 27.6775974243000000 37.6135011825000021  9.7837482716000004
 25.7183652782999985 41.3484838577999980  6.8335700696000004
 24.5846876348000016 39.5854480295000002  9.7684532833999995
 22.6203741843999993 43.3288289750000004  6.8340337637999999
 21.4969988576000013 41.5575813252999993  9.7692089095999997
 19.5236701771000014 45.3057186127999998  6.8508767650999998
 18.4098813326000013 43.5244295111999975  9.7854406235999996
 43.4540329402000012  0.4623205673000000  6.8801646515000003
 15.3195981198000002 45.4811918145000007  9.8129174208999999
 28.9809456929000007 43.0418088874999967  6.8249216999000000
 27.8341106451000009 41.2742033046000003  9.7516236728999992
 25.8824775299000009 45.0227768068000032  6.8156918562000000
 24.7466826301999987 43.2482516569000026  9.7428691513000008
 49.8114000113000017  0.1923747723000000  6.8249079068000000
 21.6610874899000017 45.2208876279999998  9.7520726732000007
  0.9723395613000000  1.8779574512999999 13.1850471190000000
 52.9090214470000006  1.7886497657000000 16.1029334304999985
  7.3149042248000002  2.1616808144999999 13.1494738004999991
  5.2191986669999997  2.0745086715999999 16.0846468497000004
  4.0602719148000004  3.8512466586000000 13.1666115824999999
  1.9543154758000001  3.7695964920999998 16.0936447367000000
  0.8073958909000000  5.5372988852000002 13.1669445139000008
 -1.3082664400999999  5.4630159210000002 16.0850280052000016
 13.6672491913999998  2.4105803339000000 13.0824778474999999
 11.5795400319000006  2.3320799800000001 16.0247075105000008
 10.4109195238000005  4.1213724966000003 13.1113295297000008
  8.3190070624000008  4.0436394784000003 16.0516098006000014
  7.1550210139999999  5.8186332625999997 13.1331753808999991
  5.0554571460000002  5.7447376319999996 16.0676606456999984
  3.9012454598000001  7.5087056427999999 13.1418248747999993
  1.7928596110999999  7.4405767524000002 16.0683934760000007
  0.6508945428000000  9.1979816026000005 13.1348944768999996
 -1.4634284290999999  9.1364892439999998 16.0535167375000007
 -2.5930139152999998 10.8926264765000003 13.1141576581999999
 -4.7091836657000004 10.8367595786000006 16.0265450805999983
 20.0275142437000007  2.6007498588000000 13.0260492308000000
 17.9312078582999987  2.5351267503999999 15.9610855464999997
 16.7724975178999998  4.3433958535999997 13.0450482874000002
 14.6794802582999999  4.2756028322999997 15.9850420654000001
 13.5163905285000006  6.0682228246000003 13.0688240457999996
 11.4222730660000007  5.9993242097000001 16.0102783361999990
 10.2602507271000007  7.7764778873999996 13.0913602322999996
  8.1610466756999998  7.7091155996999996 16.0300738303000010
  7.0055522133999997  9.4732800145000002 13.1056803736000003
  4.8993103235000000  9.4101693863999998 16.0383877870999996
  3.7540467140999998 11.1656070283000002 13.1071662101000008
  1.6426066332000000 11.1084694852000005 16.0327567663999986
  0.5082787282000000 12.8606219545999991 13.0955081907000004
 -1.6044001662000000 12.8089112672999992 16.0149499917999982
 -2.7284771065000002 14.5639642120000001 13.0744550444000005
 -4.8374809134000003 14.5152758743000003 15.9898605761999999
 -5.9538437976000003 16.2788964408999988 13.0504152288000004
 -8.0563563623000007 16.2293102703000010 15.9641759199000006
 26.3867646291000000  2.7427753958999999 13.0045269828999999
 24.2766229033000016  2.6869071105000000 15.9273106123999995
 23.1363067801000000  4.5076393097000000 13.0053982920000006
 21.0315385295999988  4.4513709472000000 15.9342900757999999
 19.8849050908000002  6.2621724733999997 13.0135985428000005
 17.7837704860999999  6.2034843369999999 15.9484679640000007
 16.6320337070000015  8.0010111264999999 13.0293284921999994
 14.5312496727999996  7.9393162399000001 15.9682462739000002
 13.3777960511000007  9.7220822079999998 13.0491389896999994
 11.2736279073999999  9.6593189424000006 15.9882478594999995
 10.1235961419000002 11.4281304152000001 13.0660646672999992
  8.0135866901000004 11.3675893648000006 16.0014917389000004
  6.8711617594999996 13.1256339157999999 13.0737170076999991
  4.7561875723000000 13.0700401655000000 16.0033323613999983
  3.6231935479000001 14.8225423342999996 13.0694431805000004
  1.5073179176000000 14.7726622655999993 15.9934473547000007
  0.3828787526000000 16.5258040350000002 13.0554701923999996
 -1.7280900759000000 16.4802228596000013 15.9757593017000001
 -2.8463206375999999 18.2402722831000013 13.0374695882000005
 -4.9485461481000002 18.1946761389999985 15.9565039208999995
 -6.0633223693999998 19.9662598048000000 13.0219597070000006
 -8.1563033471999997 19.9165460870000004 15.9410022649999998
 -9.2689802125000007 21.7009819383000000 13.0123625670000003
 -11.3563340863000004 21.6443366284000014 15.9313235173999992
 32.7428567129000001  2.8785139596999998 13.0173301857000006
 30.6189608946000007  2.8235049740000000 15.9284775495000002
 29.4938036180999994  4.6422485029000002 13.0007254143999997
 27.3778580379999994  4.5915712745999997 15.9181859541000001
 26.2478838586999998  6.4089756518999996 12.9919026350000006
 24.1365364607999986  6.3592397396000004 15.9151156825999998
 23.0025193932000001  8.1708860168000008 12.9909498694999996
 20.8938990874999995  8.1188935192000002 15.9199110961999999
 19.7560737720999988  9.9212288074000003 12.9985224694999992
 17.6472478839999987  9.8647443121999991 15.9324826313999992
 16.5066960225999999 11.6549174314999995 13.0133694055000007
 14.3949279343000001 11.5947080821000004 15.9498098377000002
 13.2552739619000004 13.3716050413000005 13.0304018866000000
 11.1377689765000003 13.3109596864000004 15.9653704357000006
 10.0034416832000002 15.0759605700999995 13.0421034816999999
  7.8803948522000002 15.0188117978999998 15.9725682276000001
  6.7537353709000003 16.7757772532999994 13.0434567258000005
  4.6289612955999999 16.7245512530999996 15.9689170387000008
  3.5096163590999998 18.4796066974999995 13.0346576926999997
  1.3894233005000001 18.4339523093999986 15.9567200887999991
  0.2747219579000000 20.1937769431999996 13.0204871445000006
 -1.8352806669999999 20.1502259236000008 15.9418641211000001
 -2.9486763280999999 21.9202717100999998 13.0079163388999994
 -5.0458622560000004 21.8743933368999990 15.9303368029999994
 -6.1604306887000000 23.6568421670999989 13.0016101011000007
 -8.2473730008999997 23.6044946447000008 15.9253398481000001
 -9.3635772522000007 25.3986623237000018 13.0026312111000006
 -11.4452039519000000 25.3372025424999983 15.9267544130999994
 -12.5627029583999992 27.1409312084999996 13.0100403656000001
 -14.6447918350999995 27.0681379624000016 15.9338293339000003
 39.0943425771000008  3.0532030729000001 13.0661362382000004
 36.9567001090000034  2.9900890962000002 15.9654344036999998
 35.8454457164000004  4.7935319853999996 13.0304677290999997
 33.7171973717000029  4.7394076380000003 15.9359581689999992
 32.6009578512000004  6.5486117559999997 13.0032635264999996
 30.4808422868999997  6.4998923845999999 15.9155118008999992
 29.3608584649000015  8.3115596505999996 12.9857476233000000
 27.2456613292000007  8.2651980206999998 15.9038939406999997
 26.1232442527000011 10.0759217317999994 12.9774762317000008
 24.0097016713000002 10.0273637335999997 15.9011343734999997
 22.8851214935000016 11.8332054025000009 12.9784706866999997
 20.7700925846000004 11.7796326575000005 15.9069961531999997
 19.6434829672000006 13.5770472047999995 12.9881109064999993
 17.5247396140999996 13.5179555866999994 15.9201767223000008
 16.3974342857000011 15.3039199895000007 13.0032417981999995
 14.2724963494000008 15.2417829507999993 15.9358937302000001
 13.1480810375000008 17.0160646042999986 13.0172957069000006
 11.0163313213999992 16.9553672436999996 15.9467052252000006
  9.8982052895999999 18.7198804014999993 13.0231764009000006
  7.7624732833000003 18.6643579718000012 15.9479149045999993
  6.6511119324000001 20.4243349836000014 13.0185568064999995
  4.5175270990999996 20.3750818542999994 15.9397587178000002
  3.4105195573999998 22.1375391059000002 13.0067555037000009
  1.2866287607000000 22.0928350810999987 15.9270807812000008
  0.1796293908000000 23.8637032232000017 12.9944708618000000
 -1.9299471152000001 23.8192377774999997 15.9167282928000002
 -3.0407020397000002 25.6023051150000001 12.9879738897999992
 -5.1359904772000000 25.5530363553999997 15.9131428802000006
 -6.2520543035999996 27.3480496283000001 12.9900689156000002
 -8.3365489413000002 27.2907631901999999 15.9175390833999995
 -9.4581396111000000 29.0956569444000017 13.0005625560000002
 -11.5376546001999998 29.0270072950000007 15.9293389776000005
 -12.6641353919000004 30.8392804192000014 13.0185269935000001
 -14.7440339425999998 30.7568172367999999 15.9479058058999996
 -15.8752010862000006 32.5746422885000015 13.0434088812999995
 -17.9600953061999995 32.4774033427000006 15.9725596268000007
 45.4365233064999998  3.2870775844000000 13.1331523610000005
 43.2964127835000028  3.2130888771000001 16.0300716901999998
 42.1884369182999990  4.9973625048999999 13.0913811585000008
 40.0511999356999979  4.9335641242000001 15.9883014305000000
 38.9447325436999989  6.7244750802000004 13.0491912716999998
 36.8144607993000008  6.6690368643999998 15.9498515073000000
 35.7064455992000021  8.4676270826000000 13.0134280210999993
 33.5839618194000025  8.4178002287000009 15.9201858935999994
 32.4735348345000006 10.2231988399000002 12.9879941981000009
 30.3564475416999997 10.1758029591000003 15.9010036237999994
 29.2445311138000008 11.9842146412999995 12.9731168553000007
 27.1288488231000002 11.9356924062999994 15.8919026121999991
 26.0154162920000012 13.7431952657000007 12.9685776683000000
 23.8980433900000016 13.6904924489000006 15.8923041988999998
 22.7830297902999988 15.4928935300999999 12.9734135127000005
 20.6608221832999988 15.4341569582999991 15.9011794334999994
 19.5444030980999983 17.2283931615000014 12.9858455629999998
 17.4152291209999994 17.1644051542999989 15.9155313922000001
 16.3000303821000010 18.9479633965000005 13.0006871299999993
 14.1623795452000003 18.8829146819000009 15.9284726457999994
 13.0518561673000004 20.6561693194999982 13.0103167793000001
 10.9073209815999999 20.5946331612999991 15.9338656206000007
  9.8032198004000008 22.3614449354999998 13.0100564109000008
  7.6573852334000003 22.3061492345999994 15.9293263948000003
  6.5581639932000000 24.0725943857000004 13.0005935748999999
  4.4187864895000004 24.0233475377999994 15.9182434149999992
  3.3201759308000001 25.7969941853000009 12.9876925660999998
  1.1937654428000000 25.7502709416000002 15.9070717181999992
  0.0908127994000000 27.5353423642000017 12.9788024343000004
 -2.0193862223000001 27.4865588484999996 15.9017651147999999
 -3.1303065224000002 29.2843989929999999 12.9784220570999995
 -5.2259017327999997 29.2294111267999988 15.9054063394000007
 -6.3457945217000002 31.0377878862000003 12.9877392463000003
 -8.4310469761999993 30.9730340865999985 15.9181980356999997
 -9.5602162328000002 32.7891770960000031 13.0066896639999996
 -11.6400017380000005 32.7116823118999989 15.9397069590000005
 -12.7776101054000009 34.5322730377000013 13.0346040152999993
 -14.8571696208000006 34.4403928641999997 15.9688739398999999
 -16.0014968601000014 36.2624052636000016 13.0694113439000006
 -18.0855991333000006 36.1574099453000031 16.0033508435999998
 -19.2338717842999998 37.9774917196999979 13.1071546440999995
 -21.3266373959000006 37.8634617859000002 16.0384419632000004
 51.7731565656999990  3.5632286299999998 13.1757224723000004
 49.6469643175000002  3.4827339462000002 16.0846123733999988
 48.5236405942999980  5.2539841495999999 13.1494020989999996
 46.3917986241999998  5.1825976635000002 16.0515874232000009
 45.2784902263000006  6.9555327896000003 13.1113049423000003
 43.1465269731999967  6.8924524813000003 16.0102754139999988
 42.0397761943000035  8.6713075316000001 13.0688352900000009
 39.9119813483999977  8.6147009477999994 15.9682672991000008
 38.8081775953999966 10.4032800995999999 13.0293462881999993
 36.6865016364999974 10.3506414218000007 15.9325291310000008
 35.5832836374000010 12.1485505608000004 12.9984838199000006
 33.4666101436000005 12.0976973178999998 15.9068776363000008
 32.3629094260000016 13.9024364431999992 12.9782681283999999
 30.2479082872999996 13.8509677527000008 15.8921256960000008
 29.1435859304999987 15.6585642261999993 12.9684124157999996
 27.0267694680000012 15.6037319121000007 15.8873381948999999
 25.9205479624999988 17.4097940221999998 12.9685775509999992
 23.7988503231999999 17.3494626773999983 15.8921676033000008
 22.6909607169999994 19.1501172291999993 12.9776311066000005
 20.5615714543999992 19.0835220895000006 15.9039723239999997
 19.4530254474000017 20.8756840327999988 12.9919059775000001
 17.3141040755000013 20.8057551574000001 15.9181546939000000
 16.2085402420000015 22.5884908915999993 13.0045230664000009
 14.0602140298999991 22.5198274554000015 15.9272061374000007
 12.9604249873999997 24.2942421607999997 13.0087525684000003
 10.8066123697999998 24.2309170485000003 15.9267548480999999
  9.7125822073000005 26.0031714379999990 13.0026355376999998
  7.5604895290999998 25.9465278471000005 15.9176203648999994
  6.4685537798999997 27.7230430422999987 12.9901250232999992
  4.3262226770999996 27.6709885683999985 15.9054368062000009
  3.2308378331999998 29.4583901931999996 12.9784286511999998
  1.1036523341000000 29.4068568297999988 15.8972418484000002
  0.0000810695000000 31.2078500994999999 12.9737999679999998
 -2.1112711827999999 31.1522203273999985 15.8972953574000009
 -3.2255472289000000 32.9653030740999995 12.9790127733999991
 -5.3231833714999999 32.9026188674000011 15.9071008237000004
 -6.4497079848999999 34.7241074957999984 12.9944823268000000
 -8.5370009448000008 34.6509581087000029 15.9270446067999991
 -9.6756362789000008 36.4767365402000010 13.0204223018000000
 -11.7570570578000009 36.3912707598000011 15.9566773581000003
 -12.9063100562000006 38.2170144127999976 13.0554119118000003
 -14.9867250941000005 38.1197556572000025 15.9934388191999997
 -16.1431323493000001 39.9409761791999998 13.0954999613999998
 -18.2276299952999992 39.8346528869999972 16.0327600528000005
 -19.3863375982999990 41.6487718369000035 13.1349183183000005
 -21.4792632507999990 41.5383867420000001 16.0684787178999997
 -22.6348382277999995 43.3435005269000015 13.1670727967999994
 -24.7391072230999995 43.2341256734000012 16.0937083200999993
 -2.4420334619999999  7.2261225437999999 13.1501257240000005
 49.4890699182000020  7.1592701328999997 16.0602945762999987
 48.3676014612000031  8.9224135628999992 13.1198801418999995
 46.2438418261000024  8.8621358963999999 16.0246360074000016
 45.1319686982999997 10.6309579265000007 13.0824590163999996
 43.0107269111000008 10.5750697984999995 15.9850518119000000
 41.9055048971999966 12.3537506155999992 13.0450578187000001
 39.7890433666999996 12.2995001546000005 15.9484852998999997
 38.6875850971999995 14.0897536561999992 13.0136096976999998
 36.5751603834999983 14.0351718459000008 15.9199684629000000
 35.4757843175000005 15.8354468242999999 12.9908360933000004
 33.3644621768999983 15.7792840341999998 15.9009882744999995
 32.2656352758000011 17.5853887514999982 12.9774239052000002
 30.1522388483000015 17.5262843022999988 15.8917983735000004
 29.0523285730000005 19.3343784664000005 12.9733050362999993
 26.9339552255999983 19.2698517124999995 15.8922993654999996
 25.8318384497000011 21.0757427445999994 12.9784470192000008
 23.7056240747999993 21.0047904531999983 15.9012008010999999
 22.6013882282000012 22.8052579462000011 12.9909575666000006
 20.4655663797000003 22.7290435200999994 15.9151539624999998
 19.3621678957000007 24.5210784138000015 13.0054693026999999
 17.2151784489000015 24.4438490116000011 15.9273190740999997
 16.1163649378999985 26.2279583573000004 13.0140381661000006
 13.9602782187999992 26.1544968586000017 15.9313376132000002
 12.8675931787000000 27.9338316338999988 13.0123642081999993
 10.7083183830999999 27.8668455562000013 15.9253248631000002
  9.6195516179999991 29.6479523771999993 13.0016114695000002
  7.4650641578999997 29.5870917533999993 15.9133022035000007
  6.3749072775000002 31.3770053982999997 12.9880185053999995
  4.2322933515000001 31.3193552582000017 15.9018891173999997
  3.1349431117000002 33.1223182359999981 12.9789442618000006
  1.0078546321999999 33.0637183854000014 15.8973261502999996
 -0.1006351429000000 34.8802959269999988 12.9785956177999999
 -2.2129545217000000 34.8170339837000000 15.9020626168000003
 -3.3341118900000000 36.6437575196000012 12.9881040297000006
 -5.4336587769999998 36.5733508319000009 15.9167773477000001
 -6.5687243479999999 38.4051418220999992 13.0079725255999996
 -8.6584241349000006 38.3258010834999965 15.9418069862999996
 -9.8069426135000004 40.1564032356000027 13.0374622191000000
 -11.8903013284999997 40.0679590097999991 15.9757208489000000
 -13.0496854560000006 41.8924672233000024 13.0744264452000003
 -15.1315608701999995 41.7964548185999973 16.0149570351000001
 -16.2968779593000015 43.6107987741999992 13.1141967566000002
 -18.3824684335000015 43.5105425642000014 16.0536014348999991
 -19.5477543052000016 45.3132481114000001 13.1502482706000006
 -21.6413259527000008 45.2128759998999996 16.0851891008999992
  4.2258979834000003  0.1929147338000000 13.1758035149000001
  2.1210997324999998  0.0965281088000000 16.1029815019999987
 -5.8280772652000001 12.5971902125999993 13.0847113700000008
 46.1116359983999970 12.5443824436000000 15.9934382536000008
 45.0008746745999986 14.3144951963999993 13.0533996926999993
 42.8922151159000009 14.2614266713000006 15.9610595195999991
 41.7871714111999992 16.0441679593999993 13.0259950396999997
 39.6824633299999974 15.9882876496000002 15.9343005653999992
 38.5814785633000028 17.7827390491000017 13.0053980864999996
 36.4776258405999982 17.7232507941999984 15.9150880357000002
 35.3790699282000034 19.5267228189000015 12.9918648111999993
 33.2725793797999998 19.4627440854999989 15.9038412796999999
 32.1746989262000014 21.2713304900999987 12.9857735081999994
 30.0625827231000002 21.2013776920000012 15.9010904343000004
 28.9627838639000004 23.0111789034000012 12.9880340402000005
 26.8429643738000010 22.9342279984999990 15.9070051192000008
 25.7405199471000010 24.7416263902999987 12.9985230473000009
 23.6107997643000012 24.6574083994999995 15.9200115850999993
 22.5073339752000017 26.4595498336999988 13.0136196591999997
 20.3657269903000007 26.3719271564000017 15.9343440116000004
 19.2650056831000001 28.1666677957000005 13.0260012984000006
 17.1121245187000000 28.0808998336000002 15.9427364407999992
 16.0172245438000012 29.8698181926999986 13.0293324720000001
 13.8566961017000008 29.7897093374000015 15.9410271023999996
 12.7670488902999999 31.5775635510999990 13.0218926252999996
 10.6058616939999997 31.5045040565999983 15.9304391408000008
  9.5174888422000006 33.2976027991999999 13.0079502040000001
  7.3636507429000000 33.2304083424999988 15.9167259902999998
  6.2701410654999998 35.0350324614000002 12.9944513111000006
  4.1293830681000001 34.9701416958000024 15.9070207809999999
  3.0256992214000000 36.7882464723999973 12.9877711832999996
  0.8997445442000001 36.7225270793000007 15.9055388287999993
 -0.2165938830000000 38.5518017131999997 12.9901928407000007
 -2.3291525917999998 38.4830522115000022 15.9133869616000005
 -3.4590941731000000 40.3182217956999978 13.0016193183999995
 -5.5600442948000000 40.2441733162999995 15.9304144155999996
 -6.7038917806000002 42.0793264961000020 13.0218765834999992
 -8.7954032737999999 41.9998185326999973 15.9565041285000007
 -9.9518951102000006 43.8283064828999969 13.0503783658000003
 -12.0373381275000000 43.7432330295999989 15.9898835135000006
 -13.2031424725999997 45.5601754392000018 13.0847466970999999
 -15.2871678632000005 45.4713775243999976 16.0265761419999997
 10.5698253180999995  0.4626453731000000 13.1199171868000004
  8.4820895995000001  0.3730594711000000 16.0603890936000013
 -9.1672040135999993 18.0053234676999985 13.0293366775999999
 42.7893493141000008 17.9515455971999991 15.9427386918000007
 41.6825112335000014 19.7403486098000016 13.0140335502000006
 39.5880699968000016 19.6807575614999983 15.9273289819000006
 38.4844307309000015 21.4802707288000008 13.0045181826000000
 36.3879224491000031 21.4140033788999986 15.9181149817000005
 35.2860356114999973 23.2211743575000007 13.0006754572999998
 33.1837200514000017 23.1470997457000003 15.9153913067000001
 32.0815582199000033 24.9588133369999987 13.0033157418999998
 29.9711438837999999 24.8755791688000016 15.9201729150000002
 28.8667936832999992 26.6888181666999991 13.0133946772000009
 26.7460394894000011 26.5961048323000000 15.9325216590000007
 25.6396081112000012 28.4071833405999996 13.0293497130000002
 23.5070302359000003 28.3085761425000015 15.9484702019999993
 22.4018291255000008 30.1143727806999983 13.0450510448999992
 20.2564166673999999 30.0150711896000004 15.9610695186000004
 19.1561252883999984 31.8146995823999994 13.0534034831000003
 16.9998459084000011 31.7198568439999988 15.9641596034000006
 15.9057361860000004 33.5159212299000018 13.0503762571999999
 13.7439507856999992 33.4286219610999993 15.9564949408000007
 12.6533167842999994 35.2263073186000000 13.0374572033000007
 10.4935810732999997 35.1470125259000028 15.9418063225999997
  9.4009809075999993 36.9524143001000027 13.0204380263000008
  7.2503925078000000 36.8791959194999990 15.9270013790000000
  6.1496456371999999 38.6962253891000003 13.0067276533000005
  4.0124470436999999 38.6264755345000026 15.9181960920000005
  2.8999582523999998 40.4546758342999979 13.0005871288999995
  0.7759638482000000 40.3857825763000022 15.9176241966000003
 -0.3491333084000000 42.2212566151000033 13.0026051005000003
 -2.4609646732999999 42.1517414158999983 15.9253117095000007
 -3.5986228612000000 43.9882504305999973 13.0123628075000006
 -5.7003905154999996 43.9168931983000022 15.9410039508000008
 -6.8500413859000000 45.7479660095999989 13.0293623028999992
 -8.9435056595999995 45.6738497488000021 15.9641962518000007
 16.9228301845000004  0.6823527147000000 13.0534420209000004
 14.8345055361000000  0.6054969299000000 15.9934923813999994
 -12.4672917300999995 23.4402365328000002 13.0087486231000007
 39.4991445858000034 23.3751176329000003 15.9272225449999993
 38.3894884179999991 25.1800891243999985 13.0103327595000007
 36.2985019015999981 25.1049812249999995 15.9284741963999998
 35.1889215194999991 26.9166970566000003 13.0172463261000004
 33.0903275738999980 26.8301204921000007 15.9358340208999998
 31.9791310674000009 28.6461689976999985 13.0303773727000003
 29.8704374225999985 28.5477065233999987 15.9498274784999996
 28.7572795871000011 30.3648447638000007 13.0491613413999996
 26.6367134573000008 30.2574191946999989 15.9682506988000004
 25.5237823235999990 32.0718799798000020 13.0688313621999992
 23.3896289527000008 31.9608663809999989 15.9850379504000006
 22.2806259687999990 33.7699973534000009 13.0824678074000005
 20.1337508412000012 33.6617195206999966 15.9934376116999992
 19.0312256188999989 35.4656602032999970 13.0847269295000004
 16.8748173858000001 35.3645251231000017 15.9898612194999998
 15.7781158018000003 37.1666354333000015 13.0744234120999998
 13.6184143080000002 37.0747978109000016 15.9757444521000007
 12.5233270380999997 38.8801966042999965 13.0554387518000006
 10.3676407970000000 38.7976769926000031 15.9566635199999993
  9.2679870018999999 40.6110342958999979 13.0346232541999996
  7.1224809189000000 40.5361288913000024 15.9396927206000001
  6.0131198690999996 42.3592575921000005 13.0185832274000006
  3.8801760157000000 42.2897941380999995 15.9293332135999997
  2.7594039657999998 44.1205688399999971 13.0100799468999995
  0.6386702154000000 44.0548056794999994 15.9267615448999997
 -0.4930513182000000 45.8884267223999984 13.0087676562999999
 -2.6040036071000001 45.8242177329000029 15.9313463210999995
 23.2809553238999989  0.8432403342000000 13.0140114363000006
 21.1784056336999988  0.7791666715000000 15.9427335224999993
 -15.7638368053000004 28.8794053330000011 13.0231417946000008
 36.2022407178999970 28.7933287281000005 15.9466436387999995
 35.0811018224000009 30.6102295047999995 13.0420532362999992
 32.9854075583999986 30.5102540393000012 15.9653096409999993
 31.8619123928999990 32.3300370673999993 13.0660592143999992
 29.7550802139000012 32.2185044917000027 15.9882462462999992
 28.6311741968000000 34.0375832940000009 13.0913851063000006
 26.5109808441999988 33.9197589122000025 16.0102707926000001
 25.3903591732000002 35.7346395864000002 13.1113729696999997
 23.2565218075000004 35.6173199978999975 16.0246664468999995
 22.1425060432999992 37.4264429356000008 13.1199302022000008
 19.9963495677999994 37.3149300870000005 16.0264897435000009
 18.8898613894000000 39.1195858769999987 13.1140933293999993
 16.7359617080000014 39.0176210432000019 16.0148726016000005
 15.6347463551000008 40.8214052618000025 13.0955234894999997
 13.4792994832000002 40.7305059138000018 15.9935141099999996
 12.3783166479000002 42.5379709166000026 13.0695048025999991
 10.2282146094000002 42.4579212888000015 15.9689487670000005
  9.1214725993000005 44.2723825850999972 13.0434700468999996
  6.9816687726000000 44.2016742252000014 15.9478785148999993
  5.8655896289999996 46.0235596465999990 13.0231964384999994
  3.7374595346000001 45.9601374877999973 15.9338892504000000
 29.6385306206000010  0.9751341368000001 13.0103404435000005
 27.5203518550999995  0.9165894306000000 15.9272161092999998
 -19.0950412482999994 34.2980034531000015 13.0737433863000003
 32.8644959124999971 34.1876335310999977 16.0015099487999990
 31.7280725795999992 36.0077671761999980 13.1056890176999996
 29.6224684125000017 35.8891838475000000 16.0300750172000015
 28.4883081894000014 37.7056845433000021 13.1331752180999999
 26.3691533157999984 37.5852643436000022 16.0516453191000004
 25.2414221714000000 39.3957604292000028 13.1494070449000002
 23.1085154127000010 39.2792898718000032 16.0603203424000007
 21.9896552165999992 41.0836957113999972 13.1501558993999996
 19.8458722931000011 40.9759402488000006 16.0534679945999983
 18.7354542345000006 42.7762581697000002 13.1348672432000004
 16.5851759544000004 42.6796876749000020 16.0327564566000014
 15.4797220719999995 44.4797532062000016 13.1072136955000005
 13.3294263919000002 44.3953893109000006 16.0034456781000003
 12.2238623900000007 46.1992300053000022 13.0737976651000007
 10.0796944122000003 46.1266513497999995 15.9726019439000009
 35.9953380258000024  1.1252322965999999 13.0421284807000006
 33.8612769718999971  1.0626308284999999 15.9467242904000006
 -22.4743674350000013 39.6785618936999995 13.1418305758000002
 29.4740650126999988 39.5608775748999975 16.0677319999000012
 28.3318996896000002 41.3695271149999968 13.1665153714999992
 26.2136665328999996 41.2542586166999996 16.0846087934999993
 25.0807424583999996 43.0553819041000025 13.1757500596000003
 22.9496509810000013 42.9470042559999996 16.0850438961000002
 21.8274405840000014 44.7421527354999995 13.1669707107999994
 19.6863263967000002 44.6438970530999981 16.0684037191999991
 18.5733261773999985 46.4355386834999990 13.1418158835999996
 16.4274551988999988 46.3492054856000024 16.0384804498000015
 42.3462719290999985  1.3302650453000000 13.1057249662000004
 40.2017680514000020  1.2561790224000000 16.0015805909000015
 -25.8862295696000011 45.0304207978999997 13.1850996497999997
 26.0496091866999997 44.9262137174000031 16.1029570010999983
 24.9140201609000016 46.7144221654999967 13.1850978111000003
 22.7848233015999995 46.6191281008999994 16.0936940242999995
 48.6877159965999979  1.5906416070000000 13.1665600218000005
 46.5504478972000015  1.5057736933999999 16.0677275172999998
