1302
Lattice="51.93315096186893 -8.494762111e-06 -0.000168220479229 -25.966580336815348 44.97544278858007 0.000367932044416 -8.1177714218e-05 0.000155556142662 24.96340864020649" Properties=species:S:1:pos:R:3 pbc="T T T"
Te     -20.96265476      42.90448767       4.77012211
Te     -17.80314299      44.50597777       4.80840980
Te     -18.00252012      40.97730445       4.82635937
Te     -14.85270405      42.60485098       4.87033042
Te     -11.71515872      44.26902814       4.90948908
Te     -18.18552971      37.46616876       4.86089009
Te     -15.03344306      39.08737032       4.89442850
Te     -11.89447471      40.74156159       4.92673136
Te      -8.76133095      42.43056867       4.94729701
Te      -5.63046224      44.14537585       4.95590498
Te     -15.18940809      35.59220474       4.92313159
Te     -12.04975341      37.23559069       4.95076139
Te      -8.92105508      38.91081030       4.96826559
Te      -5.79521881      40.61595645       4.97383438
Te      -2.66653370      42.34184968       4.96924350
Te       0.46339129      44.08029601       4.96300005
Te     -15.31700836      32.11462041       4.94236015
Te     -12.17656187      33.74834657       4.96628227
Te      -9.05060443      35.41050504       4.98721242
Te      -5.93248591      37.10187834       4.99491468
Te      -2.81548962      38.81652653       4.99155942
Te       0.30442673      40.54631727       4.98090046
Te       3.42741830      42.28033354       4.96683771
Te       6.55351588      44.00722734       4.95188297
Te     -12.27749750      30.27277142       4.97047942
Te      -9.15037687      31.92181209       4.99271184
Te      -6.03827768      33.59962356       5.00703709
Te      -2.93287071      35.30259737       5.00962051
Te       0.17141746      37.02240040       5.00344091
Te       3.27856320      38.74875268       4.98904297
Te       6.38905919      40.47171616       4.97048832
Te       9.50388679      42.18305663       4.94232697
Te      12.62801424      43.87264931       4.89876543
Te     -12.36295725      26.80359597       4.96680859
Te      -9.23013236      28.44048346       4.98902058
Te      -6.11762690      30.10320946       5.00819184
Te      -3.01884780      31.79357230       5.01750649
Te       0.07266653      33.50313647       5.01631425
Te       3.16228078      35.22188225       5.00818940
Te       6.25361053      36.93902380       4.99269464
Te       9.34851614      38.64648749       4.96625383
Te      12.45171335      40.33379638       4.92310399
Te      15.57199571      41.99160624       4.86032073
Te      18.71352480      43.61859494       4.79178850
Te      -9.29979949      24.96602058       4.98083717
Te      -6.18147723      26.61277083       5.00338438
Te      -3.08434868      28.28691314       5.01630190
Te      -0.00003893      29.98368631       5.02043340
Te       3.07679110      31.69305772       5.01749651
Te       6.15058848      33.40495787       5.00698653
Te       9.22502549      35.10827842       4.98715158
Te      12.30517663      36.79303649       4.95070943
Te      15.40032565      38.45104872       4.89432082
Te      18.52013222      40.07724213       4.82448214
Te      21.66664082      41.67828998       4.75720656
Te      24.83678653      43.26582093       4.71567828
Te      -9.36930237      21.49531624       4.96911925
Te      -6.24180253      23.12899779       4.99146443
Te      -3.13994672      24.78431011       5.00955798
Te      -0.05807832      26.46435460       5.01749275
Te       3.01152344      28.16095875       5.01628387
Te       6.07270732      29.86409403       5.00954837
Te       9.13074161      31.56219582       4.99483203
Te      12.19160287      33.24593240       4.96817432
Te      15.26374784      34.90561845       4.92670311
Te      18.35630365      36.53554693       4.86972577
Te      21.47812001      38.13963994       4.80673717
Te      24.63016581      39.72728603       4.75593006
Te      27.80145554      41.31131854       4.73781571
Te      -6.31027407      19.64876456       4.97370320
Te      -3.19836139      21.28691006       4.99480385
Te      -0.11246176      22.94643118       5.00694240
Te       2.95522733      24.62592204       5.00814037
Te       6.00995856      26.31581489       5.00334454
Te       9.05716090      28.00548704       4.99143967
Te      12.10538556      29.68631315       4.97370221
Te      15.15995626      31.34772270       4.94714491
Te      18.22900397      32.98655032       4.90941171
Te      21.32290419      34.60134817       4.86382899
Te      24.44805200      36.19681080       4.81777674
Te      27.60145831      37.78360417       4.79033464
Te     -21.16542681      39.37405284       4.79343558
Te      -6.39873167      16.17269095       4.94712243
Te      -3.27068883      17.79425430       4.96813271
Te      -0.17453801      19.43221260       4.98709557
Te       2.89664991      21.09013712       4.99260698
Te       5.95140508      22.76175198       4.98892783
Te       8.99523075      24.43866442       4.98075479
Te      12.03569924      26.11383318       4.96906258
Te      15.07956520      27.77889896       4.95571945
Te      18.13221313      29.42871285       4.93756984
Te      21.20467073      31.05965693       4.91263449
Te      24.30250411      32.67221230       4.88205329
Te      27.43201059      34.27039897       4.85338738
Te      30.58663634      35.86384179       4.84381823
Te      -3.36939683      14.30385953       4.92665087
Te      -0.25555073      15.92233469       4.95064653
Te       2.82789523      17.55613348       4.96614024
Te       5.88830612      19.20653323       4.97034650
Te       8.93546257      20.86707491       4.96667944
Te      11.97627214      22.53398804       4.96281890
Te      15.01491405      24.20112560       4.95921822
Te      18.05887498      25.86133286       4.95471365
Te      21.11608227      27.51155837       4.94678462
Te      24.19339536      29.14861232       4.93262423
Te      27.29926138      30.76607118       4.91090808
Te      30.43564369      32.37120496       4.89580567
Te     -18.34229424      33.97550158       4.89876451
Te      -3.50412141      10.81061009       4.86965170
Te      -0.36727546      12.41286129       4.89421182
Te       2.73756055      14.02507432       4.92298714
Te       5.81297393      15.65331996       4.94218896
Te       8.86791952      17.29632634       4.95170051
Te      11.91456203      18.95329631       4.95654753
Te      14.95607932      20.62062599       4.96175674
Te      17.99827948      22.29102763       4.96675316
Te      21.04815866      23.96049180       4.96862915
Te      24.11368223      25.62111648       4.96548299
Te      27.20142820      27.26379778       4.95393126
Te      30.31943206      28.88630777       4.93619495
Te      33.46317436      30.50072903       4.92949524
Te      -0.51887960       8.89793827       4.82437062
Te       2.61310623      10.49392953       4.86014778
Te       5.71412204      12.10298992       4.89858029
Te       8.78713364      13.72966932       4.92947144
Te      11.84410598      15.37958326       4.95021399
Te      14.89290529      17.04604924       4.96488942
Te      17.94051918      18.72473536       4.97500158
Te      20.99102458      20.40948190       4.98247825
Te      24.05164516      22.09023478       4.98506476
Te      27.12889609      23.75770728       4.97976307
Te      30.23177497      25.40188262       4.96454132
Te      33.36351412      27.02834837       4.95019957
Te     -15.42156783      28.64745108       4.95186364
Te      -0.70550828       5.37252069       4.75708978
Te       2.45131968       6.95977419       4.79158804
Te       5.58104880       8.55733776       4.84357350
Te       8.68101599      10.17255680       4.89573287
Te      11.75710202      11.81431771       4.93617839
Te      14.81853172      13.48063466       4.96451914
Te      17.87471633      15.16558683       4.98144231
Te      20.93298871      16.86089036       4.99099637
Te      23.99564974      18.55866886       4.99522604
Te      27.06984739      20.24636622       4.99287186
Te      30.16289102      21.91267850       4.98144796
Te      33.28235416      23.55476679       4.96488202
Te      36.42323264      25.18048390       4.95651568
Te       2.25644439       3.42042038       4.73685668
Te       5.41098658       5.01191649       4.78970134
Te       8.53808300       6.62169736       4.85326695
Te      11.63926261       8.25891476       4.91083719
Te      14.72126120       9.92531394       4.95386288
Te      17.79388566      11.61554146       4.97971662
Te      20.86433483      13.32009142       4.99285130
Te      23.93666910      15.02807511       4.99910906
Te      27.01281637      16.73164448       4.99910604
Te      30.10193579      18.41650513       4.99096732
Te      33.21233222      20.07613082       4.97496748
Te      36.34640029      21.71281094       4.96169315
Te     -12.43980137      23.33670288       4.96290261
Te       5.21250763       1.46648993       4.75773182
Te       8.36133167       3.07370707       4.81829256
Te      11.48684754       4.71052079       4.88187615
Te      14.59301514       6.37788768       4.93249572
Te      17.68776501       8.07257601       4.96540414
Te      20.77658047       9.78430293       4.98499777
Te      23.86301776      11.50160782       4.99517882
Te      26.95008762      13.21582497       4.99907966
Te      30.04091449      14.91527276       4.99518074
Te      33.14608684      16.59192476       4.98241722
Te      36.27192856      18.24297667       4.96669179
Te      39.41780619      19.87160206       4.95911856
Te      11.30588185       1.16544232       4.86365678
Te      14.43234508       2.83406878       4.91243560
Te      17.54939815       4.53137699       4.94664592
Te      20.65867490       6.24808501       4.96853511
Te      23.76252632       7.97416178       4.98238929
Te      26.86467173       9.69815411       4.99091466
Te      29.96541566      11.40908021       4.99280848
Te      33.07134680      13.10097464       4.98498178
Te      36.19279643      14.76698080       4.96854172
Te      39.33360366      16.40533777       4.95459373
Te      -9.44924576      18.02671639       4.95574293
Te      17.38100572       0.98868677       4.93738017
Te      20.50712149       2.70887530       4.95458493
Te      23.62938744       4.44153860       4.96664519
Te      26.74676540       6.17466183       4.97491560
Te      29.86197296       7.89727782       4.98135458
Te      32.97680574       9.60227342       4.97964666
Te      36.09816559      11.28185680       4.96535275
Te      39.23413909      12.93259816       4.94662841
Te      42.38638431      14.55811697       4.93740154
Te      23.46686509       0.90283312       4.95906436
Te      26.59712886       2.64214080       4.96159668
Te      29.72436873       4.37471068       4.96477309
Te      32.84927275       6.09301118       4.96441992
Te      35.97690622       7.78641771       4.95378397
Te      39.11320412       9.44904069       4.93245782
Te      42.26260213      11.08182246       4.91244674
Te      -6.51397999      12.69538824       4.90936083
Te      29.56179236       0.84176249       4.95637546
Te      32.69197553       2.56763292       4.95005615
Te      35.82305439       4.27487965       4.93604120
Te      38.96106426       5.95053505       4.91074648
Te      42.11019131       7.59275456       4.88185926
Te      45.27067003       9.20857318       4.86361632
Te      35.64931785       0.74513044       4.92932301
Te      38.78291968       2.43178484       4.89561743
Te      41.92946256       4.08340465       4.85316404
Te      45.08981298       5.70441143       4.81750239
Te      -3.67588595       7.30497872       4.80663699
Te      41.73181261       0.55476369       4.84345482
Te      44.88708124       2.18026223       4.78939554
Te      48.05622210       3.78157362       4.75555361
Te      47.84267412       0.24389498       4.73575760
Te      -0.91532778       1.83388966       4.71485367
Te     -23.92014102      44.85160187       4.71734381
Te     -21.01482645      42.91574490       8.37996473
Te     -17.86095507      44.50176941       8.42918528
Te     -18.06564298      40.99531772       8.44782965
Te     -14.90870753      42.60974438       8.49156092
Te     -11.75365325      44.26510997       8.53138236
Te     -18.24714087      37.49817887       8.48301833
Te     -15.09311105      39.10477952       8.51860819
Te     -11.93861338      40.75275406       8.55011961
Te      -8.78744051      42.43797569       8.56859150
Te      -5.63906341      44.15036847       8.57542823
Te     -15.24346985      35.60919424       8.54658945
Te     -12.09595711      37.24690106       8.57632789
Te      -8.95163615      38.92370978       8.59310006
Te      -5.81111618      40.63106584       8.59541404
Te      -2.67130051      42.35671825       8.58945299
Te       0.46707777      44.09108190       8.58151651
Te     -15.35789815      32.12591044       8.56440435
Te     -12.21499194      33.75009448       8.59170714
Te      -9.08040055      35.41425657       8.61206245
Te      -5.95184181      37.11336184       8.61929944
Te      -2.82635242      38.83565005       8.61428371
Te       0.30114058      40.56873212       8.60253800
Te       3.43228945      42.30092210       8.58793129
Te       6.57231865      44.02540953       8.57221693
Te     -12.30657393      30.26691896       8.59325452
Te      -9.17528137      31.91407518       8.61729334
Te      -6.05557149      33.59937870       8.63136751
Te      -2.94409504      35.31203267       8.63375363
Te       0.16510899      37.04073434       8.62642422
Te       3.27760617      38.77364774       8.61251185
Te       6.39856345      40.49981324       8.59327473
Te       9.53414131      42.21284067       8.56440292
Te      12.68156480      43.89874254       8.52149021
Te     -12.38322624      26.79746620       8.58789215
Te      -9.25119969      28.42719291       8.61249497
Te      -6.13206543      30.09377438       8.63235444
Te      -3.02715433      31.79247559       8.64087492
Te       0.06837766      33.51133127       8.64032628
Te       3.16135499      35.23910982       8.63235509
Te       6.25940684      36.96444550       8.61727748
Te       9.36928370      38.67890532       8.59166187
Te      12.49360554      40.37210792       8.54651057
Te      15.63168678      42.02884957       8.48281658
Te      18.77535850      43.64403990       8.41154812
Te      -9.31752830      24.95191551       8.60247972
Te      -6.19419951      26.59812595       8.62638019
Te      -3.08930328      28.27907814       8.64031657
Te      -0.00004668      29.98369321       8.64487072
Te       3.08002043      31.70080055       8.64085007
Te       6.15902021      33.42004700       8.63131554
Te       9.24318241      35.13219146       8.61200116
Te      12.33808095      36.82742727       8.57632140
Te      15.44596061      38.49422151       8.51834033
Te      18.57052471      40.12324617       8.44544991
Te      21.70603996      41.71683145       8.37610979
Te      24.84565563      43.28743044       8.33316355
Te      -9.37977824      21.48374161       8.58934457
Te      -6.25291837      23.11002005       8.61419418
Te      -3.14249291      24.76984204       8.63369694
Te      -0.05296353      26.45768325       8.64084141
Te       3.02078287      28.16058375       8.64029419
Te       6.08649553      29.86911127       8.63368158
Te       9.15038520      31.57320267       8.61920335
Te      12.21808003      33.26593517       8.59300638
Te      15.29557920      34.93822525       8.55003936
Te      18.38889868      36.58210105       8.49136624
Te      21.50284151      38.19452394       8.42642828
Te      24.63267587      39.77936109       8.37405978
Te      27.77097248      41.34772600       8.35705128
Te      -6.31541913      19.62741342       8.59525963
Te      -3.19863673      21.26440476       8.61919123
Te      -0.10357055      22.93155163       8.63127656
Te       2.97062795      24.61808523       8.63227696
Te       6.02900695      26.31210343       8.62633853
Te       9.07917056      28.00533145       8.61417915
Te      12.12642721      29.69251371       8.59526668
Te      15.17943000      31.36659417       8.56847349
Te      18.24485549      33.02189192       8.53125024
Te      21.33101304      34.65396000       8.48516950
Te      24.44188596      36.25963619       8.43856987
Te      27.57220715      37.84192077       8.40860539
Te     -21.21767324      39.41203475       8.41398807
Te      -6.39209865      16.14638918       8.56843443
Te      -3.26657750      17.76132364       8.59296054
Te      -0.16288019      19.40452190       8.61193789
Te       2.91579175      21.07242513       8.61718581
Te       5.97350763      22.75013761       8.61240207
Te       9.01631565      24.43030663       8.60237561
Te      12.05099053      26.11051151       8.58928017
Te      15.08820610      27.78383066       8.57524293
Te      18.13371356      29.44760244       8.55716597
Te      21.19744067      31.09721068       8.53441912
Te      24.28781752      32.72779379       8.50331162
Te      27.40416363      34.33118708       8.47515012
Te      30.53958130      35.91465364       8.46509044
Te      -3.35706879      14.25995357       8.54999825
Te      -0.24220940      15.87663079       8.57624383
Te       2.84560189      17.52195665       8.59156003
Te       5.90791365      19.18422819       8.59313590
Te       8.95086072      20.85254038       8.58777460
Te      11.98377699      22.52543580       8.58134977
Te      15.01336729      24.19913779       8.57748013
Te      18.04925966      25.87043859       8.57361280
Te      21.10112072      27.53436538       8.56737020
Te      24.17545990      29.18626445       8.55489292
Te      27.27651901      30.81618919       8.53374745
Te      30.40091456      32.41838842       8.51694683
Te     -18.39164456      34.00864089       8.52150162
Te      -3.48007795      10.75909939       8.49127930
Te      -0.35268611      12.35174361       8.51824294
Te       2.74981435      13.96961903       8.54641274
Te       5.82368676      15.61223768       8.56425943
Te       8.87429013      17.27096053       8.57204174
Te      11.91273581      18.94007453       8.57593069
Te      14.94624595      20.61517616       8.58039107
Te      17.98229406      22.29351358       8.58563415
Te      21.02995582      23.97209032       8.58881605
Te      24.09582563      25.64336697       8.58681493
Te      27.18624483      27.29788387       8.57552237
Te      30.30034475      28.92348583       8.55731511
Te      33.43277449      30.52666740       8.55031977
Te      -0.50420438       8.83128189       8.44529081
Te       2.61556304      10.42359809       8.48265298
Te       5.70997951      12.04351636       8.52131120
Te       8.77984497      13.69036848       8.55031244
Te      11.83221066      15.35774858       8.56946395
Te      14.87731544      17.03644916       8.58403521
Te      17.92336737      18.72310828       8.59476253
Te      20.97426876      20.41381110       8.60319622
Te      24.03722198      22.10248250       8.60569152
Te      27.11991326      23.77823827       8.60049019
Te      30.22535410      25.42812868       8.58529966
Te      33.35058837      27.04954451       8.56945829
Te     -15.44670822      28.65461106       8.57220405
Te      -0.69205005       5.31897944       8.37597587
Te       2.44250255       6.89366518       8.41144224
Te       5.55997941       8.49068154       8.46476589
Te       8.65746504      10.11880077       8.51693525
Te      11.73445275      11.77917861       8.55727557
Te      14.79902300      13.46191931       8.58526556
Te      17.85874899      15.15853935       8.60209731
Te      20.92033708      16.86073514       8.61138195
Te      23.98684352      18.56336158       8.61589482
Te      27.06624839      20.25730508       8.61365026
Te      30.16480962      21.93001461       8.60210458
Te      33.28184056      23.57306253       8.58402210
Te      36.41273058      25.18869791       8.57589523
Te       2.23778806       3.37829452       8.35513035
Te       5.37491560       4.95832580       8.40873909
Te       8.49935875       6.56726482       8.47503628
Te      11.60727313       8.21415773       8.53369392
Te      14.69935874       9.89509704       8.57545870
Te      17.78060736      11.59748449       8.60044419
Te      20.85667116      13.31150035       8.61362478
Te      23.93237448      15.02638411       8.61958740
Te      27.01353679      16.73620172       8.61958902
Te      30.10814642      18.42752130       8.61135968
Te      33.21950847      20.09177191       8.59471572
Te      36.34665146      21.72402412       8.58035159
Te     -12.45097234      23.33447065       8.58142519
Te       5.16728370       1.44617343       8.37680881
Te       8.31068392       3.03822499       8.43857197
Te      11.44620198       4.67006959       8.50319723
Te      14.56932641       6.34348499       8.55476450
Te      17.67739434       8.04598915       8.58673000
Te      20.77320073       9.76567925       8.60563170
Te      23.86336335      11.49160928       8.61584207
Te      26.95370741      13.21291280       8.61956756
Te      30.04940715      14.92054090       8.61584394
Te      33.15823021      16.60425829       8.60313577
Te      36.28210418      18.25557544       8.58556277
Te      39.41687617      19.87393354       8.57737789
Te      11.25680134       1.14656301       8.48521783
Te      14.40344821       2.80900726       8.53422193
Te      17.53709597       4.50698788       8.56723406
Te      20.65771533       6.22649703       8.58873803
Te      23.76710294       7.95743724       8.60311448
Te      26.87113299       9.68724817       8.61131475
Te      29.97671566      11.40674527       8.61358473
Te      33.08918551      13.10733632       8.60561002
Te      36.21196503      14.77691720       8.58871995
Te      39.34633109      16.40908549       8.57349227
Te      -9.44925637      18.01674351       8.57525626
Te      17.36389832       0.98052461       8.55698787
Te      20.50403576       2.69597139       8.57347904
Te      23.63524313       4.42644113       8.58552639
Te      26.75674338       6.16063239       8.59463670
Te      29.87606153       7.88692682       8.60201960
Te      32.99911425       9.59977436       8.60038281
Te      36.12638914      11.28616024       8.58666828
Te      39.26139697      12.93412810       8.56721233
Te      42.40200241      14.54736610       8.55700436
Te      23.46940397       0.90248130       8.57731913
Te      26.60675532       2.63631809       8.58024235
Te      29.74046305       4.36600305       8.58393286
Te      32.87524699       6.08544922       8.58518258
Te      36.01402642       7.78250776       8.57536764
Te      39.15481184       9.44571397       8.55472222
Te      42.29877262      11.06931470       8.53421047
Te      -6.49130110      12.66398078       8.53118703
Te      29.57418788       0.84676763       8.57575472
Te      32.71681906       2.56818586       8.56933020
Te      35.86481327       4.27281460       8.55715148
Te      39.01588523       5.94516931       8.53355548
Te      42.16570816       7.57769416       8.50309491
Te      45.31219072       9.17522228       8.48494873
Te      35.68700208       0.75845311       8.55014850
Te      38.84126741       2.43826385       8.51680698
Te      41.99619385       4.07707166       8.47484541
Te      45.14727687       5.67819965       8.43827524
Te      -3.64071590       7.25599753       8.42635528
Te      41.80017800       0.56986390       8.46462407
Te      44.95255216       2.17603464       8.40810717
Te      48.09978664       3.75264740       8.37341360
Te      47.88869501       0.24951215       8.35465020
Te      -0.90280716       1.81438892       8.33315183
Te     -23.94743161      44.85040516       8.33630726
Te     -20.80013108      43.53210417      12.28057037
Te     -20.59164246      40.01798971      12.24576387
Te     -17.65621938      41.93834674      12.21623757
Te     -14.71002496      43.83001850      12.16897296
Te     -17.46696096      38.40796042      12.17911023
Te     -14.52014548      40.30586014      12.14964271
Te     -11.56335355      42.16702568      12.12012572
Te      -8.60214843      43.99565876      12.09701206
Te     -17.30884024      34.85611813      12.13713784
Te     -14.35803393      36.76142469      12.12025941
Te     -11.39727180      38.63276368      12.09924829
Te      -8.42856624      40.46936157      12.08657539
Te      -5.46149425      42.27945583      12.08256448
Te      -2.49773767      44.07285955      12.07968343
Te     -14.23137666      33.19671429      12.09824544
Te     -11.26623075      35.08045724      12.07977592
Te      -8.28891131      36.92977303      12.06720724
Te      -5.30830270      38.74941001      12.06562311
Te      -2.33181262      40.54916821      12.07100639
Te       0.63916722      42.33924716      12.07594160
Te       3.60736655      44.12866757      12.07891584
Te     -14.13358946      29.61880983      12.08550550
Te     -11.16746553      31.51423876      12.07089240
Te      -8.18600932      33.37795177      12.05437983
Te      -5.19371844      35.20996925      12.04869965
Te      -2.20017614      37.01809106      12.05226285
Te       0.78984302      38.81509641      12.05971194
Te       3.77401230      40.60940094      12.07112942
Te       6.75064984      42.40616838      12.08554295
Te       9.71972062      44.21616679      12.10477595
Te     -11.08922521      27.93930482      12.07109063
Te      -8.10788113      29.81702769      12.05326015
Te      -5.11007081      31.66303068      12.04137471
Te      -2.10395739      33.48280816      12.03938871
Te       0.90343039      35.28833546      12.04383962
Te       3.90949966      37.08861833      12.05327246
Te       6.90910994      38.88969853      12.07089386
Te       9.89811863      40.70189579      12.09823881
Te      12.87393638      42.53735260      12.13710722
Te      15.83331825      44.40559890      12.18961706
Te     -11.01989407      24.35952801      12.07585414
Te      -8.04322470      26.25208613      12.05966241
Te      -5.04577315      28.11382611      12.04381072
Te      -2.03374024      29.94776904      12.03657315
Te       0.98565121      31.76287559      12.03657777
Te       4.00928449      33.56943672      12.04135589
Te       7.03243997      35.37581928      12.05434088
Te      10.04691579      37.19216102      12.07971867
Te      13.04858711      39.02924268      12.12021056
Te      16.02894540      40.89836779      12.17904228
Te      18.98551461      42.79950756      12.24546634
Te      21.92203161      44.72582771      12.29917106
Te      -7.98413707      22.68163345      12.07092781
Te      -4.99195191      24.56115188      12.05219243
Te      -1.97842387      26.41212658      12.03934476
Te       1.04793070      28.24047405      12.03653890
Te       4.08220682      30.05618310      12.03936556
Te       7.12284590      31.86839135      12.04864652
Te      10.15984303      33.68903088      12.06712496
Te      13.18883395      35.52945653      12.09916012
Te      16.19917981      37.39739656      12.14952488
Te      19.18083095      39.29713634      12.21592220
Te      22.13311444      41.22299699      12.27991502
Te      25.06491052      43.16109253      12.31951997
Te      -7.91779467      19.10610273      12.08238509
Te      -4.93727154      21.00378991      12.06550618
Te      -1.92930566      22.87272141      12.04862437
Te       1.10060562      24.71864515      12.04129289
Te       4.14213991      26.54894240      12.04377904
Te       7.19193384      28.37186111      12.05218328
Te      10.24538662      30.19790764      12.06552655
Te      13.29505771      32.04016978      12.08647348
Te      16.33263902      33.90614947      12.12000069
Te      19.34617695      35.79975650      12.16880015
Te      22.32628510      37.71938232      12.22843689
Te      25.27492344      39.65613972      12.27824560
Te     -23.72801025      41.59782993      12.29950510
Te      -4.86666723      17.44158175      12.08642385
Te      -1.87107526      19.33230081      12.06708338
Te       1.15340576      21.19732935      12.05427666
Te       4.19821662      23.04545066      12.05318268
Te       7.25319672      24.88391920      12.05960239
Te      10.31577452      26.72033709      12.07087563
Te      13.37909034      28.56556210      12.08239444
Te      16.43571735      30.42736700      12.09685755
Te      19.47615202      32.31072301      12.12284104
Te      22.48714754      34.21766435      12.16315142
Te      25.46288397      36.14465940      12.20936603
Te      28.40919724      38.08205092      12.24357642
Te      -4.76948424      13.87795184      12.11992765
Te      -1.79175364      15.78890322      12.09907844
Te       1.21914778      17.67855330      12.07961722
Te       4.25817888      19.54718015      12.07078333
Te       7.31502312      21.40239794      12.07099600
Te      10.38053858      23.25233662      12.07579687
Te      13.45034292      25.10216531      12.07950291
Te      16.51729913      26.95787339      12.08065438
Te      19.57391866      28.82753855      12.08592207
Te      22.60983432      30.71614038      12.10372023
Te      25.61380687      32.62453619      12.13564063
Te      28.58161965      34.55157538      12.17133423
Te     -20.40650337      36.48492795      12.18966898
Te      -1.67923262      12.24790142      12.14941571
Te       1.30927846      14.16047700      12.12007404
Te       4.33306893      16.05252282      12.09809287
Te       7.38274885      17.92616839      12.08538056
Te      10.44610898      19.78708789      12.07872307
Te      13.51530553      21.64227611      12.07366509
Te      16.58646112      23.49230619      12.06708554
Te      19.65153682      25.34751687      12.06007499
Te      22.69978218      27.21409209      12.06115479
Te      25.72461596      29.09896292      12.07729724
Te      28.71690486      31.00651306      12.10696926
Te      31.67734773      32.93158003      12.13308187
Te      -1.52482635       8.71584667      12.21577360
Te       1.43779794      10.64484471      12.17889513
Te       4.43470614      12.55765055      12.13692789
Te       7.46571509      14.44988150      12.10459495
Te      10.51891957      16.32126253      12.08299453
Te      13.58295397      18.17852806      12.06691216
Te      16.64900320      20.02405609      12.05314945
Te      19.71405555      21.86567519      12.04127835
Te      22.76936719      23.71119116      12.03546766
Te      25.80398559      25.57174973      12.04164448
Te      28.81326495      27.45418452      12.06253441
Te      31.79116006      29.36397135      12.09065471
Te     -17.18562204      31.28508178      12.10477804
Te       1.60596171       7.13380059      12.24531706
Te       4.57298194       9.06061382      12.18941825
Te       7.57488879      10.96777035      12.13301152
Te      10.60761508      12.85018337      12.09062272
Te      13.65880617      14.70909162      12.06098622
Te      16.71458396      16.54934308      12.04205899
Te      19.77205047      18.37829455      12.02840357
Te      22.82456349      20.20643962      12.02075163
Te      25.86455212      22.04460978      12.02262367
Te      28.88324841      23.90416226      12.03695786
Te      31.87545884      25.79209571      12.06101367
Te      34.84157370      27.70520109      12.08297214
Te       1.80598090       3.62752588      12.29907334
Te       4.74850952       5.56213788      12.24353799
Te       7.71977894       7.47677077      12.17123733
Te      10.72225805       9.36649698      12.10688342
Te      13.75047306      11.22610015      12.06247030
Te      16.78990486      13.06169481      12.03692748
Te      19.83310457      14.88262725      12.02145215
Te      22.87723732      16.69708486      12.01372725
Te      25.91434218      18.51883711      12.01273718
Te      28.93859883      20.35822262      12.02146830
Te      31.94126661      22.22557154      12.04205208
Te      34.91800121      24.12306038      12.06688656
Te     -14.05365642      26.03540319      12.07883764
Te       4.95246151       2.06077359      12.27853649
Te       7.89945463       3.97931025      12.20932009
Te      10.87253685       5.87008781      12.13552212
Te      13.87038037       7.72886504      12.07718239
Te      16.88536395       9.56120968      12.04156521
Te      19.90965635      11.37722084      12.02256241
Te      22.93815949      13.18323270      12.01270185
Te      25.96651706      14.99189314      12.00931527
Te      28.98789841      16.81467852      12.01371094
Te      31.99645365      18.66325139      12.02836787
Te      34.98324867      20.54502378      12.05310541
Te      37.95150910      22.44977705      12.07359111
Te       8.10400244       0.47571739      12.22862608
Te      11.05617369       2.36578469      12.16302603
Te      14.02726560       4.22278655      12.10355627
Te      17.01516466       6.05170756      12.06105093
Te      20.01395604       7.86344049      12.03538176
Te      23.02159583       9.66360334      12.02068622
Te      26.03442115      11.46387609      12.01368763
Te      29.04702134      13.27358526      12.01268844
Te      32.05343164      15.10562679      12.02070381
Te      35.04561031      16.96981122      12.04120512
Te      38.01813867      18.86506416      12.06697580
Te     -10.95278937      20.77610220      12.07955756
Te      14.21315045       0.71165310      12.12264659
Te      17.18079816       2.53791403      12.08574197
Te      20.15578841       4.34518305      12.05995415
Te      23.13990363       6.14018835      12.04117801
Te      26.13102830       7.93411146      12.02831711
Te      29.12784660       9.73482415      12.02139314
Te      32.12533877      11.55381947      12.02253297
Te      35.11621777      13.40105073      12.03536196
Te      38.09224620      15.28302517      12.05993322
Te      41.05397596      17.19217958      12.08051548
Te      20.32828615       0.82562042      12.08047121
Te      23.29495001       2.61831982      12.06695027
Te      26.26730068       4.40659190      12.05302854
Te      29.24369063       6.20072993      12.04197017
Te      32.22640522       8.00980413      12.03685735
Te      35.21020998       9.84272794      12.04151337
Te      38.18463087      11.70986708      12.06100220
Te      41.14483274      13.61022915      12.08574939
Te      -7.83373940      15.52809836      12.09683038
Te      26.43273894       0.88362225      12.07349849
Te      29.39860117       2.67408701      12.06679764
Te      32.36528011       4.47448684      12.06088773
Te      35.33579775       6.29538457      12.06237789
Te      38.30454220       8.14784167      12.07712265
Te      41.26247242      10.03676150      12.10350867
Te      44.21026548      11.95329280      12.12263645
Te      32.53901095       0.94920904      12.08284259
Te      35.50076570       2.76158684      12.09047198
Te      38.46038258       4.60267973      12.10676471
Te      41.41317582       6.48101973      12.13543244
Te      44.35620244       8.39220735      12.16291181
Te      -4.63632868      10.32137185      12.16871837
Te      38.64731091       1.07632688      12.13286150
Te      41.59813596       2.94728810      12.17109318
Te      44.53715848       4.85166172      12.20911996
Te      47.46922019       6.78068210      12.22816367
Te      44.74183003       1.33142084      12.24329404
Te      47.67220332       3.25875263      12.27794193
Te      -1.33311875       5.19615973      12.27976611
Te      50.81265069       1.68817250      12.31922207
Te       2.02226605       0.12644312      12.31970119
Te     -20.75321329      43.50937784      15.89878005
Te     -20.55480876      39.96425929      15.86540229
Te     -17.60404274      41.90099555      15.83579665
Te     -14.66034010      43.80977384      15.79097661
Te     -17.42772563      38.35349477      15.80009786
Te     -14.47962122      40.26490620      15.77206818
Te     -11.53408199      42.14202114      15.74120358
Te      -8.58645365      43.98664409      15.71667633
Te     -17.28519036      34.80332997      15.75921856
Te     -14.32674232      36.71726195      15.74318326
Te     -11.37296781      38.59814357      15.72141538
Te      -8.41785508      40.44446288      15.70741544
Te      -5.46042357      42.26669855      15.70139870
Te      -2.49933347      44.07254198      15.69868923
Te     -14.20941561      33.16186821      15.71904971
Te     -11.24447056      35.05103351      15.70216375
Te      -8.27855976      36.90420360      15.68847926
Te      -5.30803983      38.72767657      15.68637435
Te      -2.33700223      40.53316573      15.68991275
Te       0.63110688      42.33293228      15.69440203
Te       3.59492705      44.13386250      15.69813783
Te     -14.12193656      29.59632546      15.70480945
Te     -11.14759032      31.49513408      15.69157104
Te      -8.17236101      33.36043541      15.67535695
Te      -5.19091422      35.19152399      15.66911457
Te      -2.20424669      37.00022456      15.67232714
Te       0.78063624      38.80070277      15.68027262
Te       3.75734234      40.60084823      15.69025634
Te       6.72540489      42.40731369      15.70484750
Te       9.68225529      44.22948026      15.72621032
Te     -11.07347292      27.92911493      15.69021887
Te      -8.09210508      29.80919958      15.67363987
Te      -5.10306117      31.65474744      15.66171254
Te      -2.10489419      33.47333167      15.66021024
Te       0.89726042      35.27819420      15.66464672
Te       3.89486260      37.07885896      15.67364187
Te       6.88264959      38.88201300      15.69157913
Te       9.85700620      40.70028987      15.71903633
Te      12.81642665      42.54326368      15.75918597
Te      15.76501845      44.42037006      15.81063548
Te     -11.01038918      24.35567736      15.69431788
Te      -8.02615452      26.25126348      15.68020469
Te      -5.03388103      28.11354016      15.66460720
Te      -2.03041444      29.94625364      15.65737377
Te       0.98270438      31.76075262      15.65737690
Te       3.99863699      33.56750478      15.66169521
Te       7.01045589      35.37273682      15.67531750
Te      10.01059129      37.18796546      15.70211492
Te      12.99470539      39.02417987      15.74311742
Te      15.96226108      40.89161980      15.80002736
Te      18.92083621      42.79437970      15.86519736
Te      21.87678349      44.73038219      15.91721699
Te      -7.96769955      22.68508949      15.68982440
Te      -4.97443921      24.56654827      15.67227365
Te      -1.96972206      26.41604118      15.66014551
Te       1.04755650      28.24406724      15.65734840
Te       4.07449027      30.06174118      15.66019049
Te       7.10549236      31.87520588      15.66905766
Te      10.13251462      33.69285100      15.68840321
Te      13.14672666      35.52571146      15.72131769
Te      16.14356170      37.38276245      15.77194446
Te      19.12264258      39.27056675      15.83558212
Te      22.09015184      41.19362992      15.89827695
Te      25.05184291      43.14165970      15.93855588
Te      -7.90726900      19.11338171      15.70126024
Te      -4.91857782      21.01483978      15.68625373
Te      -1.91474130      22.88435155      15.66902342
Te       1.10427261      24.72882006      15.66163959
Te       4.13646203      26.55934718      15.66459199
Te       7.17852427      28.38429565      15.67225950
Te      10.22645853      30.20853943      15.68626225
Te      13.26813987      32.04331737      15.70729072
Te      16.29639369      33.89330413      15.74107738
Te      19.30387756      35.76689893      15.79076736
Te      22.29081018      37.67113627      15.84792791
Te      25.26099468      39.60382831      15.89697778
Te     -23.70952264      41.55623074      15.91748554
Te      -4.85045852      17.46328475      15.70724407
Te      -1.85413146      19.35405091      15.68834546
Te       1.16175462      21.21788213      15.67525551
Te       4.19707146      23.06304217      15.67356333
Te       7.24536976      24.89908188      15.68015518
Te      10.30454942      26.73279579      15.68977244
Te      13.36753782      28.57099382      15.70124898
Te      16.42004446      30.41825794      15.71653128
Te      19.45356395      32.28007994      15.74408131
Te      22.46268302      34.16512880      15.78501997
Te      25.44836473      36.07726360      15.83041958
Te      28.41831423      38.01642031      15.86268272
Te      -4.76245916      13.91576898      15.74101561
Te      -1.77391947      15.82723056      15.72123061
Te       1.23371378      17.71205287      15.70202817
Te       4.26479437      19.57395605      15.69150378
Te       7.31598106      21.42110051      15.69012592
Te      10.37911929      23.26246477      15.69423838
Te      13.45089465      25.10369838      15.69850187
Te      16.51787261      26.94909916      15.69999626
Te      19.56850739      28.80290851      15.70767694
Te      22.59732835      30.67103368      15.72723066
Te      25.59952056      32.56255983      15.75953296
Te      28.58030765      34.48082470      15.79355748
Te     -20.38510962      36.41831811      15.81069677
Te      -1.66409389      12.30340685      15.77183568
Te       1.33186993      14.20965039      15.74299548
Te       4.35226473      16.08891093      15.71888938
Te       7.39639538      17.94746581      15.70469128
Te      10.45687186      19.79526094      15.69794983
Te      13.52683252      21.63837983      15.69291806
Te      16.59754911      23.47946716      15.68638205
Te      19.65775533      25.32639592      15.68164920
Te      22.69634944      27.18164712      15.68532149
Te      25.71134652      29.05336940      15.70287094
Te      28.70391902      30.95022698      15.73149916
Te      31.68112707      32.87296874      15.75544973
Te      -1.51873656       8.77954866      15.83547489
Te       1.46531714      10.70597819      15.79987769
Te       4.46861375      12.60449855      15.75901813
Te       7.49595903      14.47565207      15.72605345
Te      10.54446303      16.32859065      15.70358459
Te      13.60326103      18.17173298      15.68740794
Te      16.66676408      20.00961271      15.67448750
Te      19.72582233      21.84665346      15.66350574
Te      22.76997946      23.68861137      15.65974290
Te      25.79267841      25.54385791      15.66707091
Te      28.79476828      27.42040885      15.68720914
Te      31.77961844      29.32308937      15.71301923
Te     -17.17839473      31.24596130      15.72623088
Te       1.63389002       7.19239495      15.86504451
Te       4.61995355       9.11241283      15.81044947
Te       7.62375680      11.00031532      15.75537956
Te      10.64879345      12.86058052      15.71299041
Te      13.68820486      14.70308606      15.68410790
Te      16.73619384      16.53514238      15.66519525
Te      19.78545757      18.36304652      15.65180291
Te      22.82805008      20.19144289      15.64460984
Te      25.85579504      22.02947590      15.64733451
Te      28.86417938      23.88663089      15.66119219
Te      31.85559297      25.76962672      15.68412653
Te      34.83517994      27.67943455      15.70355972
Te       1.83247853       3.66448942      15.91716533
Te       4.80079643       5.60299315      15.86258774
Te       7.78173665       7.51104620      15.79343700
Te      10.77750595       9.38336577      15.73141435
Te      13.78896688      11.22692252      15.68714715
Te      16.81459200      13.05394341      15.66115592
Te      19.84817834      14.87299873      15.64563804
Te      22.88276634      16.68903455      15.63687990
Te      25.90973419      18.51163836      15.63624650
Te      28.92275520      20.34996373      15.64565382
Te      31.91820434      22.21393762      15.66519422
Te      34.90199607      24.10884248      15.68737108
Te     -14.05194347      26.02199189      15.69805020
Te       5.00478786       2.07502243      15.89712167
Te       7.96517950       4.00054525      15.83041354
Te      10.93338578       5.88869969      15.75940549
Te      13.91649413       7.74014256      15.70275966
Te      16.91517046       9.56533464      15.66698971
Te      19.92714468      11.37716670      15.64727555
Te      22.94669005      13.18280256      15.63620696
Te      25.96652477      14.99187027      15.63228506
Te      28.97818409      16.81389823      15.63684256
Te      31.97656134      18.65924637      15.65177994
Te      34.96189819      20.53685046      15.67444543
Te      37.94240872      22.44173254      15.69283676
Te       8.16367096       0.46901010      15.84794557
Te      11.11394250       2.37085781      15.78487979
Te      14.07257296       4.23449659      15.72708825
Te      17.04493002       6.06493061      15.68521602
Te      20.03324076       7.87523816      15.65965446
Te      23.03281948       9.67411510      15.64452230
Te      26.03863346      11.47268160      15.63682300
Te      29.04313222      13.28116215      15.63619950
Te      32.03871026      15.11011300      15.64453598
Te      35.02329647      16.96909308      15.66342404
Te      38.00148475      18.86185146      15.68628377
Te     -10.95172573      20.77485074      15.69854430
Te      14.25101208       0.70741462      15.74389322
Te      17.20484573       2.54551512      15.70749081
Te      20.17095689       4.36105927      15.68151707
Te      23.15048373       6.15990156      15.66342223
Te      26.13754463       7.95332380      15.65173933
Te      29.12864899       9.75266494      15.64558018
Te      32.11663096      11.56895929      15.64723570
Te      35.09637453      13.41182345      15.65961245
Te      38.07087064      15.28816983      15.68150655
Te      41.04611326      17.19604185      15.69986435
Te      20.33558735       0.83049343      15.69981507
Te      23.30054329       2.63430876      15.68624716
Te      26.27091655       4.42915686      15.67436827
Te      29.24517924       6.22652634      15.66510330
Te      32.22078675       8.03508498      15.66109287
Te      35.19173207       9.86645525      15.66690327
Te      38.15827671      11.72903218      15.68517280
Te      41.12624873      13.62722740      15.70750231
Te      -7.83374583      15.54617365      15.71651236
Te      26.43032532       0.89551899      15.69275566
Te      29.39431467       2.69506678      15.68729630
Te      32.35580294       4.50295879      15.68401037
Te      35.31583928       6.32828735      15.68706161
Te      38.27172251       8.18211297      15.70269733
Te      41.22967397      10.07011294      15.72703899
Te      44.19501051      11.98815081      15.74386920
Te      32.51996208       0.96761518      15.70341250
Te      35.47117106       2.79200135      15.71283917
Te      38.41816406       4.64204999      15.73131091
Te      41.36668078       6.52437132      15.75931723
Te      44.32297874       8.43965334      15.78477633
Te      -4.64360908      10.37440180      15.79067837
Te      38.59469659       1.10233422      15.75523700
Te      41.53753597       2.98381423      15.79329973
Te      44.48607725       4.89791967      15.83016790
Te      47.44521906       6.83554164      15.84764476
Te      44.68049640       1.35628651      15.86238227
Te      47.63384950       3.29692427      15.89669442
Te      -1.33706166       5.24807530      15.89814718
Te      50.80220737       1.70907235      15.93819315
Te       2.04531672       0.12493182      15.93853220
Mo     -22.11122244      41.20889970       6.56874542
Mo     -18.95041538      42.80170411       6.60608048
Mo     -19.15149203      39.28793730       6.63407757
Mo     -15.99524567      40.90019235       6.67396992
Mo     -12.84401678      42.54959977       6.71357511
Mo     -19.32567513      35.78554859       6.67714111
Mo     -16.17199140      37.39410662       6.70498799
Mo     -13.02193213      39.03391490       6.73830568
Mo      -9.87725173      40.71008431       6.76071714
Mo      -6.73719255      42.41681575       6.77031263
Mo     -16.31827914      33.90187759       6.73349738
Mo     -13.16975873      35.53184253       6.76197884
Mo     -10.03017564      37.19670124       6.78488861
Mo      -6.89634931      38.89347036       6.79339888
Mo      -3.76454841      40.61421938       6.78980209
Mo      -0.63234475      42.34756792       6.78049058
Mo     -16.43335356      30.42301715       6.75168715
Mo     -13.28692610      32.04410821       6.77332845
Mo     -10.14983379      33.69439732       6.79766002
Mo      -7.02286846      35.37894670       6.81200653
Mo      -3.90227965      37.08998036       6.81328456
Mo      -0.78288490      38.81809466       6.80482432
Mo       2.33891620      40.55117679       6.79029545
Mo       5.46481297      42.27979489       6.77379683
Mo     -13.38120754      28.56828328       6.77377872
Mo     -10.24292178      30.20452318       6.79755800
Mo      -7.11845713      31.87270599       6.81756861
Mo      -4.00610432      33.57106159       6.82605452
Mo      -0.90032406      35.28929398       6.82410054
Mo       2.20476102      37.01755021       6.81399280
Mo       5.31268216      38.74384108       6.79756432
Mo       8.42781435      40.46023088       6.77332241
Mo      11.55232253      42.15658025       6.73348436
Mo     -13.46085759      25.10007591       6.77065101
Mo     -10.32122054      26.72548920       6.79026917
Mo      -7.19395036      28.37610976       6.81396943
Mo      -4.08317087      30.05772960       6.82821686
Mo      -0.98476175      31.76352704       6.83226852
Mo       2.10567399      33.48272692       6.82821724
Mo       5.19513188      35.20387606       6.81754561
Mo       8.28845470      36.91827251       6.79762082
Mo      11.38969537      38.61486972       6.76193160
Mo      14.50359526      40.28391512       6.70486905
Mo      17.63286843      41.91713744       6.63276771
Mo     -10.39133269      23.25410282       6.78039913
Mo      -7.25943939      24.88848698       6.80474600
Mo      -4.14469417      26.55117571       6.82406234
Mo      -1.04908377      28.24096458       6.83226738
Mo       2.03370565      29.94652745       6.83225626
Mo       5.10978635      31.65931637       6.82599692
Mo       8.18383710      33.36797248       6.81194207
Mo      11.26171429      35.06350528       6.78483173
Mo      14.34862350      36.73582509       6.73830823
Mo      17.45160333      38.37736313       6.67326508
Mo      20.57610123      39.98793474       6.60125364
Mo      23.71967537      41.57534435       6.54321803
Mo     -10.46214575      19.78754954       6.77026270
Mo      -7.32411757      21.40824024       6.78969208
Mo      -4.20315836      23.05107010       6.81319266
Mo      -1.10378680      24.72060154       6.82599581
Mo       1.97737580      26.41053383       6.82818833
Mo       5.04490352      28.11051493       6.82403479
Mo       8.10533280      29.80993260       6.81319633
Mo      11.16424397      31.50113901       6.79328596
Mo      14.22792953      33.17434495       6.76062411
Mo      17.30438134      34.82398053       6.71345381
Mo      20.40102777      36.44748140       6.65507703
Mo      23.52317479      38.04675288       6.59784662
Mo      26.66695960      39.63090556       6.56292117
Mo      -7.39888511      17.93252535       6.77014627
Mo      -4.26799725      19.55637743       6.79326123
Mo      -1.16106950      21.20405965       6.81189898
Mo       1.92320449      22.87439543       6.81746805
Mo       4.98910480      24.55731339       6.81390529
Mo       8.04222182      26.24443075       6.80470661
Mo      11.08854911      27.92854898       6.78966758
Mo      14.13597481      29.60164036       6.77015833
Mo      17.19078409      31.25913589       6.74239134
Mo      20.26209974      32.89645591       6.70563612
Mo      23.35767768      34.51357664       6.66311219
Mo      26.48079145      36.11002811       6.62679249
Mo      29.62681226      37.69623441       6.61427175
Mo      -7.49085760      14.45822294       6.74236987
Mo      -4.35081136      16.06652488       6.76059083
Mo      -1.23164734      17.69076665       6.78476921
Mo       1.86126895      19.33829246       6.79752977
Mo       4.93013795      21.00261845       6.79746203
Mo       7.98220871      22.67430367       6.79015129
Mo      11.02356893      24.34930934       6.78031385
Mo      14.06109162      26.02126639       6.77021226
Mo      17.10292599      27.68512477       6.75836961
Mo      20.15651108      29.33749237       6.74250356
Mo      23.23000301      30.97439776       6.72065155
Mo      26.33130609      32.59142242       6.69247139
Mo      29.45954905      34.19095161       6.67310579
Mo      -4.46039922      12.57740563       6.71338158
Mo      -1.32682412      14.18125966       6.73823346
Mo       1.77994911      15.80424602       6.76184737
Mo       4.85900806      17.44664839       6.77318842
Mo       7.91628970      19.10289742       6.77363209
Mo      10.95967619      20.76803301       6.77055863
Mo      13.99654011      22.43838636       6.76889413
Mo      17.03266831      24.10886560       6.76860948
Mo      20.07662237      25.77540830       6.76685219
Mo      23.13671450      27.43262717       6.76023108
Mo      26.21960573      29.07277338       6.74507332
Mo      29.33036206      30.69049486       6.72533992
Mo      32.46622574      32.29574046       6.71847197
Mo      -4.60274008       9.08382232       6.65501809
Mo      -1.45671333      10.67324946       6.67315760
Mo       1.66842672      12.27303034       6.70474426
Mo       4.76583755      13.89257575       6.73335396
Mo       7.83612355      15.53230571       6.75151175
Mo      10.88770226      17.18996303       6.76153978
Mo      13.93016186      18.85895765       6.76926292
Mo      16.96989727      20.53504220       6.77674020
Mo      20.01300954      22.21466050       6.78307616
Mo      23.06692204      23.89055155       6.78464911
Mo      26.13913625      25.55322362       6.77918625
Mo      29.23601055      27.19299966       6.76344590
Mo      32.35885297      28.81286133       6.74860532
Mo      -1.62424401       7.16203804       6.60114993
Mo       1.51820187       8.74640661       6.63260445
Mo       4.63811360      10.34634823       6.67684213
Mo       7.73108008      11.96876698       6.71847130
Mo      10.80100901      13.61723634       6.74859870
Mo      13.85630448      15.28604544       6.76965818
Mo      16.90541435      16.96901394       6.78397613
Mo      19.95527836      18.65929646       6.79364393
Mo      23.01012101      20.35047992       6.79935320
Mo      26.07797194      22.03282839       6.79832422
Mo      29.16523432      23.69488735       6.78738234
Mo      32.27643492      25.33249503       6.76965580
Mo      35.40957678      26.95143680       6.76151379
Mo      -1.82125636       3.64581559       6.54295147
Mo       1.33274637       5.22295590       6.56432297
Mo       4.47397112       6.80953655       6.61348576
Mo       7.59311460       8.41736743       6.67300813
Mo      10.68914167      10.05566131       6.72528938
Mo      13.76527744      11.72268945       6.76340662
Mo      16.83011459      13.41046188       6.78734865
Mo      19.89130635      15.11032219       6.80037458
Mo      22.95464033      16.81357169       6.80684116
Mo      26.02378670      18.51241749       6.80769078
Mo      29.10674411      20.19389796       6.80038075
Mo      32.20937446      21.85040095       6.78395901
Mo      35.33374652      23.48209540       6.76924332
Mo       1.12390756       1.69931036       6.52172263
Mo       4.27848906       3.28001218       6.56318196
Mo       7.42023872       4.87838116       6.62667625
Mo      10.54244423       6.50789302       6.69233424
Mo      13.64555560       8.17053582       6.74497827
Mo      16.73382151       9.86061705       6.77911719
Mo      19.81314574      11.56786835       6.79828966
Mo      22.88900818      13.28114187       6.80765950
Mo      25.96653558      14.99183692       6.81106485
Mo      29.05013579      16.68935984       6.80681054
Mo      32.14826730      18.36399688       6.79360160
Mo      35.26541300      20.01157887       6.77668320
Mo      38.40041312      21.63489701       6.76879790
Mo     -21.90057937      44.73325838       6.54920754
Mo       7.22169383       1.34827422       6.59916430
Mo      10.36484299       2.97162332       6.66302747
Mo      13.49348982       4.63066993       6.72045684
Mo      16.60740709       6.32073337       6.76011176
Mo      19.70984454       8.03133059       6.78458132
Mo      22.80401621       9.75219989       6.79928379
Mo      25.89482607      11.47259784       6.80678686
Mo      28.98681125      13.18196520       6.80764275
Mo      32.08544945      14.87283476       6.79928715
Mo      35.19843627      16.53634687       6.78300862
Mo      38.32904941      18.17028915       6.76852294
Mo     -15.79853002      44.42005320       6.65583294
Mo      13.31292972       1.09934589       6.70539228
Mo      16.44787367       2.78738168       6.74232608
Mo      19.57266461       4.49924770       6.76673434
Mo      22.68816594       6.22452914       6.78298901
Mo      25.79604446       7.95223265       6.79354143
Mo      28.90154692       9.67130127       6.80031522
Mo      32.00849437      11.37482155       6.79824196
Mo      35.12284102      13.05364374       6.78454518
Mo      38.25033361      14.70087268       6.76672159
Mo      41.39104298      16.32129250       6.75822230
Mo      -9.70006348      44.23362174       6.74253799
Mo      19.40563768       0.96908719       6.75820152
Mo      22.53790187       2.69638030       6.76848062
Mo      25.66431574       4.42892382       6.77660855
Mo      28.78481969       6.15610443       6.78386803
Mo      31.90425624       7.87015588       6.78727179
Mo      35.02666344       9.56167871       6.77904906
Mo      38.15549017      11.22213992       6.76007084
Mo      41.29524934      12.85063446       6.74233902
Mo      -3.59907509      44.14216547       6.77041433
Mo      25.50265461       0.90226803       6.76870861
Mo      28.63572620       2.63448805       6.76912461
Mo      31.76687827       4.35697951       6.76955301
Mo      34.89831919       6.05980382       6.76329648
Mo      38.03444395       7.73219119       6.74490773
Mo      41.17609912       9.37046755       6.72044984
Mo      44.32461002      10.97970487       6.70542620
Mo       2.50107020      44.08287429       6.77072150
Mo      31.60233055       0.83414888       6.76135100
Mo      34.73974492       2.54541523       6.74845044
Mo      37.88007882       4.22932177       6.72517460
Mo      41.02587723       5.87614289       6.69226033
Mo      44.17726123       7.49028268       6.66287595
Mo       8.59711970      43.99564573       6.75168731
Mo      37.70233112       0.71101357       6.71832028
Mo      40.84693876       2.36719730       6.67289689
Mo      43.99835708       3.98724031       6.62639766
Mo      47.15428565       5.58031796       6.59756168
Mo      14.68734239      43.81910543       6.67705169
Mo      43.79908163       0.46999166       6.61331795
Mo      46.95399222       2.06538385       6.56193493
Mo      20.77714003      43.51849606       6.56431416
Mo      49.89909530       0.12458848       6.52066459
Mo      26.87602606      43.15199259       6.52247748
Mo     -21.68761620      41.69631577      14.09204862
Mo     -21.49204366      38.16665923      14.04117839
Mo     -18.54604051      40.09714358      14.02747631
Mo     -15.60114713      42.00406658      13.99075579
Mo     -18.37316560      36.55762541      13.98106273
Mo     -15.42337287      38.46779509      13.96105058
Mo     -12.47331302      40.34511556      13.93347618
Mo      -9.51859541      42.18849881      13.91131467
Mo     -18.23461352      33.00663545      13.93649798
Mo     -15.27730641      34.92040736      13.92934049
Mo     -12.32017806      36.80506991      13.90955889
Mo      -9.35903254      38.65550894      13.89337698
Mo      -6.39384899      40.47629695      13.88820066
Mo      -3.42854245      42.27902795      13.88857044
Mo     -15.16495752      31.35869026      13.90668656
Mo     -12.20074159      33.25354188      13.89255129
Mo      -9.23223670      35.11528020      13.87583395
Mo      -6.25666421      36.94477745      13.86952143
Mo      -3.27867165      38.75084153      13.87262904
Mo      -0.30242603      40.54622240      13.87922777
Mo       2.66903200      42.34094212      13.88564863
Mo     -15.07834963      27.78599352      13.89333729
Mo     -12.10978615      29.68974158      13.88575515
Mo      -9.13620465      31.56519501      13.86820181
Mo      -6.15357513      33.40750296      13.85614287
Mo      -3.16315489      35.22267284      13.85537673
Mo      -0.17076514      37.02366951      13.86131306
Mo       2.81793489      38.81960689      13.87086881
Mo       5.80022483      40.61800560      13.88577863
Mo       8.77315107      42.42941007      13.90668826
Mo     -12.03627246      26.11658899      13.88558921
Mo      -9.06117447      28.00619947      13.87083533
Mo      -6.07531816      29.86427509      13.85469190
Mo      -3.07774669      31.69329005      13.84785269
Mo      -0.07279236      33.50330073      13.84899061
Mo       2.93415447      35.30473778      13.85469483
Mo       5.93763747      37.10507899      13.86819075
Mo       8.93203758      38.91489436      13.89254187
Mo      11.91387480      40.74584897      13.92931509
Mo      14.87965681      42.60831988      13.98101686
Mo     -11.96983535      22.53700574      13.88763244
Mo      -8.99629583      24.44057179      13.87915512
Mo      -6.01149321      26.31586126      13.86126037
Mo      -3.01176071      28.16090916      13.84895913
Mo      -0.00005664      29.98369033      13.84571312
Mo       3.01933804      31.79426711      13.84783962
Mo       6.04180864      33.60089789      13.85609805
Mo       9.06012156      35.41322789      13.87576554
Mo      12.06746207      37.24256265      13.90948303
Mo      15.05903763      39.09864134      13.96097999
Mo      18.03141298      40.98833210      14.02731539
Mo      20.98711532      42.90943464      14.09165324
Mo      -8.93388388      20.86688381      13.88844940
Mo      -5.95331001      22.76077479      13.87255216
Mo      -2.95558752      24.62489223      13.85531198
Mo       0.05825996      26.46355139      13.84779164
Mo       3.08439170      28.28690002      13.84896035
Mo       6.11857963      30.10353191      13.85533445
Mo       9.15671795      31.92153565      13.86943666
Mo      12.18943785      33.75290581      13.89328432
Mo      15.20981049      35.60514719      13.93337116
Mo      18.21042747      37.48449726      13.99055712
Mo      21.18801623      39.39532832      14.05623422
Mo      24.14559616      41.33005324      14.11043957
Mo      -8.86383888      17.29017458      13.89683454
Mo      -5.89003997      19.20022184      13.88805066
Mo      -2.90022837      21.08476888      13.86940687
Mo       0.11160709      22.94268733      13.85605482
Mo       3.14099115      24.78207571      13.85462011
Mo       6.18209095      26.61154111      13.86122502
Mo       9.23180153      28.43948142      13.87253141
Mo      12.28370551      30.27457047      13.88807505
Mo      15.32890159      32.12459841      13.91119704
Mo      18.35871994      33.99554720      13.94830459
Mo      21.36377947      35.89190677      13.99970603
Mo      24.34275840      37.81347353      14.05362471
Mo      27.29954757      39.75326653      14.09020621
Mo      -5.81045876      15.63800186      13.91114323
Mo      -2.83057320      17.54268535      13.89322735
Mo       0.17196349      19.42258971      13.87570694
Mo       3.19840049      21.28080702      13.86810184
Mo       6.24306857      23.12527943      13.87076084
Mo       9.29854618      24.96429312      13.87909032
Mo      12.36226088      26.80517979      13.88841640
Mo      15.42476364      28.65419952      13.89681946
Mo      18.47605345      30.51681932      13.91172654
Mo      21.50709762      32.39836194      13.94059618
Mo      24.51007453      34.30269085      13.98136877
Mo      27.48520712      36.22895449      14.02202685
Mo      -5.70507987      12.07862089      13.94825388
Mo      -2.73668962      14.00084407      13.93327665
Mo       0.25254629      15.90347997      13.90937495
Mo       3.26853364      17.78267031      13.89242174
Mo       6.30939584      19.64333265      13.88564918
Mo       9.36708153      21.49356391      13.88549254
Mo      12.43386893      23.34092381      13.88756364
Mo      15.50409113      25.18808618      13.88652682
Mo      18.56818067      27.04237648      13.88536850
Mo      21.61566691      28.90925881      13.89306219
Mo      24.63990577      30.79424804      13.91542610
Mo      27.63515520      32.70216758      13.94915272
Mo      30.60490028      34.62921177      13.97694392
Mo      -2.60940492      10.46256019      13.99045073
Mo       0.36416150      12.38468577      13.96085137
Mo       3.36327067      14.28484766      13.92915731
Mo       6.39164298      16.16301183      13.90653428
Mo       9.44239191      18.02438290      13.89321677
Mo      12.50565547      19.87598249      13.88406881
Mo      15.57480591      21.72136982      13.87506307
Mo      18.64286339      23.56730361      13.86589618
Mo      21.69934693      25.41886184      13.86128001
Mo      24.73522889      27.28492547      13.86889422
Mo      27.74687398      29.17194747      13.89154150
Mo      30.73238099      31.08316845      13.92116392
Mo      -2.44334988       6.92848936      14.05609666
Mo       0.51449510       8.86567358      14.02717290
Mo       3.49332760      10.78516541      13.98084161
Mo       6.49929397      12.68063304      13.93628492
Mo       9.53255618      14.55283643      13.90381891
Mo      12.58451676      16.40749151      13.88081947
Mo      15.64503681      18.25047187      13.86464573
Mo      18.70726712      20.08734211      13.85068277
Mo      21.76430675      21.92482719      13.84161642
Mo      24.80698653      23.77178310      13.84227204
Mo      27.82813145      25.63801261      13.85619820
Mo      30.82652478      27.52948744      13.88122102
Mo      33.80326666      29.44364684      13.90381272
Mo       0.70037515       5.34539906      14.09151928
Mo       3.65932088       7.27963488      14.04090995
Mo       6.64092363       9.19018191      13.97685246
Mo       9.64814300      11.07361808      13.92109919
Mo      12.67864568      12.93197805      13.88118433
Mo      15.72252426      14.77155900      13.85656034
Mo      18.77222324      16.60026019      13.84040420
Mo      21.82193967      18.42502858      13.83027560
Mo      24.86399547      20.25561222      13.82793850
Mo      27.89107369      22.10181581      13.83655816
Mo      30.89770931      23.97360849      13.85658346
Mo      33.88347463      25.87323978      13.88081521
Mo       0.90859918       1.82351452      14.13212724
Mo       3.85599434       3.76562699      14.09023416
Mo       6.81534901       5.68857164      14.02195947
Mo       9.79467026       7.58182835      13.94903780
Mo      12.79604559       9.44368024      13.89145023
Mo      15.81589067      11.28102120      13.85613620
Mo      18.84685642      13.10362755      13.83652356
Mo      21.88263068      14.91830391      13.82534886
Mo      24.91813869      16.73545099      13.82119519
Mo      27.94474362      18.56542095      13.82536204
Mo      30.95656730      20.41813753      13.84039748
Mo      33.94927471      22.30125556      13.86461326
Mo      36.92670889      24.20730915      13.88401236
Mo       4.06752931       0.24586360      14.11070910
Mo       7.01435616       2.17494639      14.05373141
Mo       9.97108122       4.07515960      13.98126527
Mo      12.94458569       5.94181396      13.91528920
Mo      15.93607561       7.77903501      13.86879158
Mo      18.94267403       9.59774883      13.84219648
Mo      21.95925044      11.40519777      13.82787279
Mo      24.98073224      13.21216604      13.82116652
Mo      28.00068636      15.02800958      13.82117118
Mo      31.01199775      16.86463220      13.83022951
Mo      34.00893253      18.73086263      13.85064037
Mo      36.99028359      20.62664118      13.87499320
Mo     -18.74479684      43.62735860      14.05669772
Mo      10.16800225       0.55577535      13.99961415
Mo      13.12179227       2.42668397      13.94043563
Mo      16.08914298       4.26524204      13.89291547
Mo      19.07007603       6.08294138      13.86119492
Mo      22.06353289       7.88618546      13.84152415
Mo      25.06564122       9.68598722      13.83021576
Mo      28.07218921      11.49191573      13.82531326
Mo      31.07630694      13.31483780      13.82786649
Mo      34.07173030      15.16464380      13.84153033
Mo      37.05488318      17.04667072      13.86578541
Mo      40.02791209      18.95452257      13.88641365
Mo     -12.65378134      43.87695888      13.94846597
Mo      16.26677817       0.74247576      13.91152498
Mo      19.22966987       2.55948855      13.88519331
Mo      22.20184344       4.36172019      13.86579474
Mo      25.18336236       6.15745236      13.85059121
Mo      28.17076925       7.95723924      13.84032440
Mo      31.16162103       9.77019580      13.83646081
Mo      34.14990372      11.60611549      13.84215909
Mo      37.13013523      13.47386658      13.86114903
Mo      40.10173167      15.37380268      13.88521739
Mo      -6.56108110      44.00672480      13.89698920
Mo      22.36756477       0.83304623      13.88636157
Mo      25.33446702       2.62763889      13.87491709
Mo      28.30523778       4.42391316      13.86453205
Mo      31.27932420       6.23048105      13.85647244
Mo      34.25552827       8.05661367      13.85606108
Mo      37.22825892       9.91169060      13.86873876
Mo      40.19475785      11.80115277      13.89288982
Mo      43.15674426      13.71635198      13.91152784
Mo      -0.46421751      44.07317052      13.88774599
Mo      28.46720365       0.89238645      13.88392668
Mo      31.43157223       2.69493634      13.88071342
Mo      34.39439298       4.51421072      13.88106923
Mo      37.35663673       6.36001386      13.89136533
Mo      40.31507733       8.23959861      13.91522352
Mo      43.27068199      10.15060896      13.94037735
Mo       5.63578560      44.14075222      13.89340038
Mo      34.56373664       0.97920382      13.90362374
Mo      37.51904674       2.81889278      13.92096325
Mo      40.46974068       4.69166428      13.94892630
Mo      43.41838616       6.59779128      13.98113464
Mo      46.36784443       8.52797110      13.99944026
Mo      11.73514700      44.26384024      13.93647431
Mo      40.65373136       1.15626031      13.97670471
Mo      43.59901401       3.05812660      14.02176887
Mo      46.54247809       4.98732005      14.05335374
Mo      17.83255997      44.50485391      14.04107168
Mo      46.74401127       1.45678894      14.08986838
Mo      49.68649180       3.39980141      14.11014287
Mo      23.93309638      44.85073134      14.13218471
Mo     -24.84186606      43.27690165      14.13249010
