Te Mo
 1.0000000000000000
    39.7113764531222557    0.0000000000000000    0.0000000000000000
   -19.8556882265611279   34.3910608276510459    0.0000000000000000
     0.0000000000000000    0.0000000000000000   35.0205229050731077
 Te  Mo
 762 381
Cartesian
 -14.8529862567275401 32.4053439288894864  6.4590526414832015
 -11.7261062210486191 34.0301184561800838  6.4590526414832015
 -11.8824502228325617 30.5097736470504479  6.4590526414832015
 -8.7555701871536424 32.1345481743410488  6.4590526414832015
 -5.6286901514747294 33.7593227016316462  6.4590526414832015
 -12.0387942246165149 26.9894288379208120  6.4590526414832015
 -8.9119141889375939 28.6142033652114094  6.4590526414832015
 -5.7850341532586773 30.2389778925020174  6.4590526414832015
 -2.6581541175797634 31.8637524197926147  6.4590526414832015
  0.4687259180991569 33.4885269470832156  6.4590526414832015
 -9.0682581907215454 25.0938585560817771  6.4590526414832015
 -5.9413781550426252 26.7186330833723744  6.4590526414832015
 -2.8144981193637091 28.3434076106629824  6.4590526414832015
  0.3123819163152047 29.9681821379535798  6.4590526414832015
  3.4392619519941356 31.5929566652441807  6.4590526414832015
  6.5661419876730474 33.2177311925347780  6.4590526414832015
 -9.2246021925054844 21.5735137469521412  6.4590526414832015
 -6.0977221568265678 23.1982882742427385  6.4590526414832015
 -2.9708421211476450 24.8230628015333465  6.4590526414832015
  0.1560379145312610 26.4478373288239474  6.4590526414832015
  3.2829179502101833 28.0726118561145448  6.4590526414832015
  6.4097979858891039 29.6973863834051457  6.4590526414832015
  9.5366780215680134 31.3221609106957466  6.4590526414832015
 12.6635580572469397 32.9469354379863475  6.4590526414832015
 -6.2540661586105166 19.6779434651131027  6.4590526414832015
 -3.1271861229315956 21.3027179924037107  6.4590526414832015
 -0.0003060872526805 22.9274925196943116  6.4590526414832015
  3.1265739484262398 24.5522670469849125  6.4590526414832015
  6.2534539841051622 26.1770415742755098  6.4590526414832015
  9.3803340197840726 27.8018161015661107  6.4590526414832015
 12.5072140554629865 29.4265906288567081  6.4590526414832015
 15.6340940911419022 31.0513651561473161  6.4590526414832015
 18.7609741268208268 32.6761396834379170  6.4590526414832015
 -6.4104101603944583 16.1575986559834739  6.4590526414832015
 -3.2835301247155386 17.7823731832740748  6.4590526414832015
 -0.1566500890366238 19.4071477105646757  6.4590526414832015
  2.9702299466422928 21.0319222378552766  6.4590526414832015
  6.0971099823212080 22.6566967651458775  6.4590526414832015
  9.2239900180001300 24.2814712924364748  6.4590526414832015
 12.3508700536790421 25.9062458197270722  6.4590526414832015
 15.4777500893579596 27.5310203470176802  6.4590526414832015
 18.6046301250368771 29.1557948743082811  6.4590526414832015
 21.7315101607157928 30.7805694015988820  6.4590526414832015
 -3.4398741264994892 14.2620283741444389  6.4590526414832015
 -0.3129940908205722 15.8868029014350451  6.4590526414832015
  2.8138859448583498 17.5115774287256407  6.4590526414832015
  5.9407659805372557 19.1363519560162416  6.4590526414832015
  9.0676460162161856 20.7611264833068425  6.4590526414832015
 12.1945260518950942 22.3859010105974399  6.4590526414832015
 15.3214060875740063 24.0106755378880372  6.4590526414832015
 18.4482861232529345 25.6354500651786452  6.4590526414832015
 21.5751661589318573 27.2602245924692461  6.4590526414832015
 -15.0093302585114809 28.8849991197598470  6.4590526414832015
 -3.5962181282834318 10.7416835650148030  6.4590526414832015
 -0.4693380926045204 12.3664580923054039  6.4590526414832015
  2.6575419430744081 13.9912326195960048  6.4590526414832015
  5.7844219787533140 15.6160071468866093  6.4590526414832015
  8.9113020144322377 17.2407816741772066  6.4590526414832015
 12.0381820501111516 18.8655562014678075  6.4590526414832015
 15.1650620857900620 20.4903307287584013  6.4590526414832015
 18.2919421214689848 22.1151052560490093  6.4590526414832015
 21.4188221571479041 23.7398797833396067  6.4590526414832015
 24.5457021928268269 25.3646543106302111  6.4590526414832015
 -0.6256820943884639  8.8461132831757698  6.4590526414832015
  2.5011979412904575 10.4708878104663690  6.4590526414832015
  5.6280779769693705 12.0956623377569734  6.4590526414832015
  8.7549580126482862 13.7204368650475708  6.4590526414832015
 11.8818380483272072 15.3452113923381770  6.4590526414832015
 15.0087180840061283 16.9699859196287690  6.4590526414832015
 18.1355981196850387 18.5947604469193735  6.4590526414832015
 21.2624781553639615 20.2195349742099744  6.4590526414832015
 24.3893581910428843 21.8443095015005753  6.4590526414832015
 -12.1951382264004540 23.4690840287911762  6.4590526414832015
 -0.7820260961724058  5.3257684740461348  6.4590526414832015
  2.3448539395065060  6.9505430013367357  6.4590526414832015
  5.4717339751854253  8.5753175286273375  6.4590526414832015
  8.5986140108643436 10.2000920559179384  6.4590526414832015
 11.7254940465432593 11.8248665832085411  6.4590526414832015
 14.8523740822221839 13.4496411104991385  6.4590526414832015
 17.9792541179010925 15.0744156377897429  6.4590526414832015
 21.1061341535800082 16.6991901650803385  6.4590526414832015
 24.2330141892589310 18.3239646923709394  6.4590526414832015
 27.3598942249378538 19.9487392196615403  6.4590526414832015
  2.1885099377225630  3.4301981922070994  6.4590526414832015
  5.3153899734014827  5.0549727194977008  6.4590526414832015
  8.4422700090804028  6.6797472467883017  6.4590526414832015
 11.5691500447593150  8.3045217740789035  6.4590526414832015
 14.6960300804382307  9.9292963013695044  6.4590526414832015
 17.8229101161171499 11.5540708286601053  6.4590526414832015
 20.9497901517960656 13.1788453559507062  6.4590526414832015
 24.0766701874749955 14.8036198832413035  6.4590526414832015
 27.2035502231539041 16.4283944105319044  6.4590526414832015
 -9.3809461942894341 18.0531689378225053  6.4590526414832015
  5.1590459716175330  1.5346279103680645  6.4590526414832015
  8.2859260072964531  3.1594024376586658  6.4590526414832015
 11.4128060429753706  4.7841769649492676  6.4590526414832015
 14.5396860786542828  6.4089514922398685  6.4590526414832015
 17.6665661143332073  8.0337260195304694  6.4590526414832015
 20.7934461500121195  9.6585005468210667  6.4590526414832015
 23.9203261856910423 11.2832750741116765  6.4590526414832015
 27.0472062213699616 12.9080496014022703  6.4590526414832015
 30.1740862570488808 14.5328241286928677  6.4590526414832015
 11.2564620411914227  1.2638321558196308  6.4590526414832015
 14.3833420768703419  2.8886066831102322  6.4590526414832015
 17.5102221125492612  4.5133812104008335  6.4590526414832015
 20.6371021482281805  6.1381557376914317  6.4590526414832015
 23.7639821839070962  7.7629302649820398  6.4590526414832015
 26.8908622195860190  9.3877047922726380  6.4590526414832015
 30.0177422552649311 11.0124793195632353  6.4590526414832015
 -6.5667541621784107 12.6372538468538416  6.4590526414832015
 17.3538781107653044  0.9930364012712007  6.4590526414832015
 20.4807581464442343  2.6178109285618021  6.4590526414832015
 23.6076381821231394  4.2425854558524039  6.4590526414832015
 26.7345182178020693  5.8673599831430048  6.4590526414832015
 29.8613982534809885  7.4921345104336030  6.4590526414832015
 32.9882782891599007  9.1169090377242039  6.4590526414832015
 23.4512941803392003  0.7222406467227672  6.4590526414832015
 26.5781742160181231  2.3470151740133689  6.4590526414832015
 29.7050542516970424  3.9717897013039702  6.4590526414832015
 32.8319342873759652  5.5965642285945680  6.4590526414832015
 -3.7525621300673828  7.2213387558851689  6.4590526414832015
 29.5487102499130891  0.4514448921743336  6.4590526414832015
 32.6755902855920155  2.0762194194649348  6.4590526414832015
 35.8024703212709312  3.7009939467555331  6.4590526414832015
 35.6461263194869886  0.1806491376259000  6.4590526414832015
 -0.9383700979563558  1.8054236649164981  6.4590526414832015
 -17.8235222906225097 34.3009142107285143  6.4590526414832015
 -14.8529862567275401 32.4053439288894864 10.0383047834832055
 -11.7261062210486191 34.0301184561800838 10.0383047834832055
 -11.8824502228325617 30.5097736470504479 10.0383047834832055
 -8.7555701871536424 32.1345481743410488 10.0383047834832055
 -5.6286901514747294 33.7593227016316462 10.0383047834832055
 -12.0387942246165149 26.9894288379208120 10.0383047834832055
 -8.9119141889375939 28.6142033652114094 10.0383047834832055
 -5.7850341532586773 30.2389778925020174 10.0383047834832055
 -2.6581541175797634 31.8637524197926147 10.0383047834832055
  0.4687259180991569 33.4885269470832156 10.0383047834832055
 -9.0682581907215454 25.0938585560817771 10.0383047834832055
 -5.9413781550426252 26.7186330833723744 10.0383047834832055
 -2.8144981193637091 28.3434076106629824 10.0383047834832055
  0.3123819163152047 29.9681821379535798 10.0383047834832055
  3.4392619519941356 31.5929566652441807 10.0383047834832055
  6.5661419876730474 33.2177311925347780 10.0383047834832055
 -9.2246021925054844 21.5735137469521412 10.0383047834832055
 -6.0977221568265678 23.1982882742427385 10.0383047834832055
 -2.9708421211476450 24.8230628015333465 10.0383047834832055
  0.1560379145312610 26.4478373288239474 10.0383047834832055
  3.2829179502101833 28.0726118561145448 10.0383047834832055
  6.4097979858891039 29.6973863834051457 10.0383047834832055
  9.5366780215680134 31.3221609106957466 10.0383047834832055
 12.6635580572469397 32.9469354379863475 10.0383047834832055
 -6.2540661586105166 19.6779434651131027 10.0383047834832055
 -3.1271861229315956 21.3027179924037107 10.0383047834832055
 -0.0003060872526805 22.9274925196943116 10.0383047834832055
  3.1265739484262398 24.5522670469849125 10.0383047834832055
  6.2534539841051622 26.1770415742755098 10.0383047834832055
  9.3803340197840726 27.8018161015661107 10.0383047834832055
 12.5072140554629865 29.4265906288567081 10.0383047834832055
 15.6340940911419022 31.0513651561473161 10.0383047834832055
 18.7609741268208268 32.6761396834379170 10.0383047834832055
 -6.4104101603944583 16.1575986559834739 10.0383047834832055
 -3.2835301247155386 17.7823731832740748 10.0383047834832055
 -0.1566500890366238 19.4071477105646757 10.0383047834832055
  2.9702299466422928 21.0319222378552766 10.0383047834832055
  6.0971099823212080 22.6566967651458775 10.0383047834832055
  9.2239900180001300 24.2814712924364748 10.0383047834832055
 12.3508700536790421 25.9062458197270722 10.0383047834832055
 15.4777500893579596 27.5310203470176802 10.0383047834832055
 18.6046301250368771 29.1557948743082811 10.0383047834832055
 21.7315101607157928 30.7805694015988820 10.0383047834832055
 -3.4398741264994892 14.2620283741444389 10.0383047834832055
 -0.3129940908205722 15.8868029014350451 10.0383047834832055
  2.8138859448583498 17.5115774287256407 10.0383047834832055
  5.9407659805372557 19.1363519560162416 10.0383047834832055
  9.0676460162161856 20.7611264833068425 10.0383047834832055
 12.1945260518950942 22.3859010105974399 10.0383047834832055
 15.3214060875740063 24.0106755378880372 10.0383047834832055
 18.4482861232529345 25.6354500651786452 10.0383047834832055
 21.5751661589318573 27.2602245924692461 10.0383047834832055
 -15.0093302585114809 28.8849991197598470 10.0383047834832055
 -3.5962181282834318 10.7416835650148030 10.0383047834832055
 -0.4693380926045204 12.3664580923054039 10.0383047834832055
  2.6575419430744081 13.9912326195960048 10.0383047834832055
  5.7844219787533140 15.6160071468866093 10.0383047834832055
  8.9113020144322377 17.2407816741772066 10.0383047834832055
 12.0381820501111516 18.8655562014678075 10.0383047834832055
 15.1650620857900620 20.4903307287584013 10.0383047834832055
 18.2919421214689848 22.1151052560490093 10.0383047834832055
 21.4188221571479041 23.7398797833396067 10.0383047834832055
 24.5457021928268269 25.3646543106302111 10.0383047834832055
 -0.6256820943884639  8.8461132831757698 10.0383047834832055
  2.5011979412904575 10.4708878104663690 10.0383047834832055
  5.6280779769693705 12.0956623377569734 10.0383047834832055
  8.7549580126482862 13.7204368650475708 10.0383047834832055
 11.8818380483272072 15.3452113923381770 10.0383047834832055
 15.0087180840061283 16.9699859196287690 10.0383047834832055
 18.1355981196850387 18.5947604469193735 10.0383047834832055
 21.2624781553639615 20.2195349742099744 10.0383047834832055
 24.3893581910428843 21.8443095015005753 10.0383047834832055
 -12.1951382264004540 23.4690840287911762 10.0383047834832055
 -0.7820260961724058  5.3257684740461348 10.0383047834832055
  2.3448539395065060  6.9505430013367357 10.0383047834832055
  5.4717339751854253  8.5753175286273375 10.0383047834832055
  8.5986140108643436 10.2000920559179384 10.0383047834832055
 11.7254940465432593 11.8248665832085411 10.0383047834832055
 14.8523740822221839 13.4496411104991385 10.0383047834832055
 17.9792541179010925 15.0744156377897429 10.0383047834832055
 21.1061341535800082 16.6991901650803385 10.0383047834832055
 24.2330141892589310 18.3239646923709394 10.0383047834832055
 27.3598942249378538 19.9487392196615403 10.0383047834832055
  2.1885099377225630  3.4301981922070994 10.0383047834832055
  5.3153899734014827  5.0549727194977008 10.0383047834832055
  8.4422700090804028  6.6797472467883017 10.0383047834832055
 11.5691500447593150  8.3045217740789035 10.0383047834832055
 14.6960300804382307  9.9292963013695044 10.0383047834832055
 17.8229101161171499 11.5540708286601053 10.0383047834832055
 20.9497901517960656 13.1788453559507062 10.0383047834832055
 24.0766701874749955 14.8036198832413035 10.0383047834832055
 27.2035502231539041 16.4283944105319044 10.0383047834832055
 -9.3809461942894341 18.0531689378225053 10.0383047834832055
  5.1590459716175330  1.5346279103680645 10.0383047834832055
  8.2859260072964531  3.1594024376586658 10.0383047834832055
 11.4128060429753706  4.7841769649492676 10.0383047834832055
 14.5396860786542828  6.4089514922398685 10.0383047834832055
 17.6665661143332073  8.0337260195304694 10.0383047834832055
 20.7934461500121195  9.6585005468210667 10.0383047834832055
 23.9203261856910423 11.2832750741116765 10.0383047834832055
 27.0472062213699616 12.9080496014022703 10.0383047834832055
 30.1740862570488808 14.5328241286928677 10.0383047834832055
 11.2564620411914227  1.2638321558196308 10.0383047834832055
 14.3833420768703419  2.8886066831102322 10.0383047834832055
 17.5102221125492612  4.5133812104008335 10.0383047834832055
 20.6371021482281805  6.1381557376914317 10.0383047834832055
 23.7639821839070962  7.7629302649820398 10.0383047834832055
 26.8908622195860190  9.3877047922726380 10.0383047834832055
 30.0177422552649311 11.0124793195632353 10.0383047834832055
 -6.5667541621784107 12.6372538468538416 10.0383047834832055
 17.3538781107653044  0.9930364012712007 10.0383047834832055
 20.4807581464442343  2.6178109285618021 10.0383047834832055
 23.6076381821231394  4.2425854558524039 10.0383047834832055
 26.7345182178020693  5.8673599831430048 10.0383047834832055
 29.8613982534809885  7.4921345104336030 10.0383047834832055
 32.9882782891599007  9.1169090377242039 10.0383047834832055
 23.4512941803392003  0.7222406467227672 10.0383047834832055
 26.5781742160181231  2.3470151740133689 10.0383047834832055
 29.7050542516970424  3.9717897013039702 10.0383047834832055
 32.8319342873759652  5.5965642285945680 10.0383047834832055
 -3.7525621300673828  7.2213387558851689 10.0383047834832055
 29.5487102499130891  0.4514448921743336 10.0383047834832055
 32.6755902855920155  2.0762194194649348 10.0383047834832055
 35.8024703212709312  3.7009939467555331 10.0383047834832055
 35.6461263194869886  0.1806491376259000 10.0383047834832055
 -0.9383700979563558  1.8054236649164981 10.0383047834832055
 -17.8235222906225097 34.3009142107285143 10.0383047834832055
 -14.6964693677371088 32.8571699392675072 13.6684483946283653
 -14.5401253659531609 29.3368251301378784 13.6684483946283653
 -11.5695893320581860 31.2323954119769027 13.6684483946283653
 -8.5990532981632217 33.1279656938159448 13.6684483946283653
 -11.4132453302742345 27.7120506028472704 13.6684483946283653
 -8.4427092963792756 29.6076208846863089 13.6684483946283653
 -5.4721732624843016 31.5031911665253403 13.6684483946283653
 -2.5016372285893285 33.3987614483643753 13.6684483946283653
 -11.2569013284902990 24.1917057937176381 13.6684483946283653
 -8.2863652945953206 26.0872760755566730 13.6684483946283653
 -5.3158292607003599 27.9828463573957080 13.6684483946283653
 -2.3452932268053801 29.8784166392347430 13.6684483946283653
  0.6252428070895897 31.7739869210737744 13.6684483946283653
  3.5957788409845595 33.6695572029128058 13.6684483946283653
 -8.1300212928113833 22.5669312664270372 13.6684483946283653
 -5.1594852589164129 24.4625015482660757 13.6684483946283653
 -2.1889492250214362 26.3580718301051071 13.6684483946283653
  0.7815868088735383 28.2536421119441421 13.6684483946283653
  3.7521228427685056 30.1492123937831771 13.6684483946283653
  6.7226588766634858 32.0447826756222085 13.6684483946283653
  9.6931949105584501 33.9403529574612435 13.6684483946283653
 -7.9736772910274363 19.0465864572974048 13.6684483946283653
 -5.0031412571324623 20.9421567391364398 13.6684483946283653
 -2.0326052232374967 22.8377270209754748 13.6684483946283653
  0.9379308106574851 24.7332973028145098 13.6684483946283653
  3.9084668445524531 26.6288675846535412 13.6684483946283653
  6.8790028784474231 28.5244378664925691 13.6684483946283653
  9.8495389123424033 30.4200081483316005 13.6684483946283653
 12.8200749462373640 32.3155784301706390 13.6684483946283653
 15.7906109801323424 34.2111487120096740 13.6684483946283653
 -4.8467972553485126 17.4218119300068039 13.6684483946283653
 -1.8762612214535477 19.3173822118458389 13.6684483946283653
  1.0942748124414270 21.2129524936848739 13.6684483946283653
  4.0648108463363970 23.1085227755239053 13.6684483946283653
  7.0353468802313710 25.0040930573629367 13.6684483946283653
 10.0058829141263494 26.8996633392019717 13.6684483946283653
 12.9764189480213155 28.7952336210410031 13.6684483946283653
 15.9469549819162850 30.6908039028800417 13.6684483946283653
 18.9174910158112617 32.5863741847190695 13.6684483946283653
 -4.6904532535645691 13.9014671208771645 13.6684483946283653
 -1.7199172196696000 15.7970374027162066 13.6684483946283653
  1.2506188142253671 17.6926076845552380 13.6684483946283653
  4.2211548481203449 19.5881779663942730 13.6684483946283653
  7.1916908820153083 21.4837482482333009 13.6684483946283653
 10.1622269159102938 23.3793185300723358 13.6684483946283653
 13.1327629498052545 25.2748888119113744 13.6684483946283653
 16.1032989837002312 27.1704590937504058 13.6684483946283653
 19.0738350175952078 29.0660293755894408 13.6684483946283653
 -17.6670054016320819 30.9615996574284758 13.6684483946283653
 -1.5635732178856536 12.2766925935865636 13.6684483946283653
  1.4069628160093191 14.1722628754255986 13.6684483946283653
  4.3774988499043017 16.0678331572646371 13.6684483946283653
  7.3480348837992624 17.9634034391036650 13.6684483946283653
 10.3185709176942382 19.8589737209427035 13.6684483946283653
 13.2891069515892060 21.7545440027817385 13.6684483946283653
 16.2596429854841809 23.6501142846207735 13.6684483946283653
 19.2301790193791469 25.5456845664598085 13.6684483946283653
 22.2007150532741200 27.4412548482988399 13.6684483946283653
 -1.4072292161017064  8.7563477844569313 13.6684483946283653
  1.5633068177932699 10.6519180662959609 13.6684483946283653
  4.5338428516882354 12.5474883481349977 13.6684483946283653
  7.5043788855832174 14.4430586299740291 13.6684483946283653
 10.4749149194781790 16.3386289118130676 13.6684483946283653
 13.4454509533731592 18.2341991936521026 13.6684483946283653
 16.4159869872681199 20.1297694754911376 13.6684483946283653
 19.3865230211631001 22.0253397573301726 13.6684483946283653
 22.3570590550580697 23.9209100391692076 13.6684483946283653
 -14.3837813641692183 25.8164803210082425 13.6684483946283653
  1.7196508195772153  7.1315732571663331 13.6684483946283653
  4.6901868534721789  9.0271435390053618 13.6684483946283653
  7.6607228873671538 10.9227138208443968 13.6684483946283653
 10.6312589212621322 12.8182841026834264 13.6684483946283653
 13.6017949551570965 14.7138543845224614 13.6684483946283653
 16.5723309890520731 16.6094246663615017 13.6684483946283653
 19.5428670229470391 18.5049949482005367 13.6684483946283653
 22.5134030568420123 20.4005652300395752 13.6684483946283653
 25.4839390907369854 22.2961355118785995 13.6684483946283653
  1.8759948213611570  3.6112284480366963 13.6684483946283653
  4.8465308552561304  5.5067987298757313 13.6684483946283653
  7.8170668891510937  7.4023690117147627 13.6684483946283653
 10.7876029230460784  9.2979392935537977 13.6684483946283653
 13.7581389569410444 11.1935095753928291 13.6684483946283653
 16.7286749908360122 13.0890798572318641 13.6684483946283653
 19.6992110247309888 14.9846501390709026 13.6684483946283653
 22.6697470586259620 16.8802204209099393 13.6684483946283653
 25.6402830925209315 18.7757907027489637 13.6684483946283653
 -11.1005573267063458 20.6713609845880022 13.6684483946283653
  5.0028748570400801  1.9864539207460949 13.6684483946283653
  7.9734108909350470  3.8820242025851299 13.6684483946283653
 10.9439469248300156  5.7775944844241618 13.6684483946283653
 13.9144829587249905  7.6731647662631959 13.6684483946283653
 16.8850189926199583  9.5687350481022282 13.6684483946283653
 19.8555550265149350 11.4643053299412614 13.6684483946283653
 22.8260910604099081 13.3598756117802981 13.6684483946283653
 25.7966270943048777 15.2554458936193367 13.6684483946283653
 28.7671631281998437 17.1510161754583663 13.6684483946283653
  8.1297548927189904  0.3616793934554968 13.6684483946283653
 11.1002909266139635  2.2572496752945317 13.6684483946283653
 14.0708269605089384  4.1528199571335636 13.6684483946283653
 17.0413629944039009  6.0483902389725985 13.6684483946283653
 20.0118990282988811  7.9439605208116264 13.6684483946283653
 22.9824350621938542  9.8395308026506640 13.6684483946283653
 25.9529710960888309 11.7351010844896972 13.6684483946283653
 28.9235071299838040 13.6306713663287269 13.6684483946283653
 -7.8173332892434848 15.5262416481677743 13.6684483946283653
 14.2271709622928793  0.6324751480039305 13.6684483946283653
 17.1977069961878541  2.5280454298429618 13.6684483946283653
 20.1682430300828130  4.4236157116819967 13.6684483946283653
 23.1387790639778004  6.3191859935210255 13.6684483946283653
 26.1093150978727699  8.2147562753600631 13.6684483946283653
 29.0798511317677431 10.1103265571990999 13.6684483946283653
 32.0503871656627126 12.0058968390381331 13.6684483946283653
 20.3245870318667698  0.9032709025523605 13.6684483946283653
 23.2951230657617501  2.7988411843913954 13.6684483946283653
 26.2656590996567125  4.6944114662304264 13.6684483946283653
 29.2361951335516856  6.5899817480694622 13.6684483946283653
 32.2067311674466623  8.4855520299084972 13.6684483946283653
 -4.5341092517806292 10.3811223117475322 13.6684483946283653
 26.4220031014406658  1.1740666571007941 13.6684483946283653
 29.3925391353356247  3.0696369389398326 13.6684483946283653
 32.3630751692305978  4.9652072207788649 13.6684483946283653
 35.3336112031255780  6.8607775026178954 13.6684483946283653
 32.5194191710145475  1.4448624116492310 13.6684483946283653
 35.4899552049095277  3.3404326934882627 13.6684483946283653
 -1.2508852143177580  5.2360029753272972 13.6684483946283653
 38.6168352405884434  1.7156581661976611 13.6684483946283653
  2.0323388231451047  0.0908836389070633 13.6684483946283653
 -14.6964693677371088 32.8571699392675072 17.2477005366283649
 -14.5401253659531609 29.3368251301378784 17.2477005366283649
 -11.5695893320581860 31.2323954119769027 17.2477005366283649
 -8.5990532981632217 33.1279656938159448 17.2477005366283649
 -11.4132453302742345 27.7120506028472704 17.2477005366283649
 -8.4427092963792756 29.6076208846863089 17.2477005366283649
 -5.4721732624843016 31.5031911665253403 17.2477005366283649
 -2.5016372285893285 33.3987614483643753 17.2477005366283649
 -11.2569013284902990 24.1917057937176381 17.2477005366283649
 -8.2863652945953206 26.0872760755566730 17.2477005366283649
 -5.3158292607003599 27.9828463573957080 17.2477005366283649
 -2.3452932268053801 29.8784166392347430 17.2477005366283649
  0.6252428070895897 31.7739869210737744 17.2477005366283649
  3.5957788409845595 33.6695572029128058 17.2477005366283649
 -8.1300212928113833 22.5669312664270372 17.2477005366283649
 -5.1594852589164129 24.4625015482660757 17.2477005366283649
 -2.1889492250214362 26.3580718301051071 17.2477005366283649
  0.7815868088735383 28.2536421119441421 17.2477005366283649
  3.7521228427685056 30.1492123937831771 17.2477005366283649
  6.7226588766634858 32.0447826756222085 17.2477005366283649
  9.6931949105584501 33.9403529574612435 17.2477005366283649
 -7.9736772910274363 19.0465864572974048 17.2477005366283649
 -5.0031412571324623 20.9421567391364398 17.2477005366283649
 -2.0326052232374967 22.8377270209754748 17.2477005366283649
  0.9379308106574851 24.7332973028145098 17.2477005366283649
  3.9084668445524531 26.6288675846535412 17.2477005366283649
  6.8790028784474231 28.5244378664925691 17.2477005366283649
  9.8495389123424033 30.4200081483316005 17.2477005366283649
 12.8200749462373640 32.3155784301706390 17.2477005366283649
 15.7906109801323424 34.2111487120096740 17.2477005366283649
 -4.8467972553485126 17.4218119300068039 17.2477005366283649
 -1.8762612214535477 19.3173822118458389 17.2477005366283649
  1.0942748124414270 21.2129524936848739 17.2477005366283649
  4.0648108463363970 23.1085227755239053 17.2477005366283649
  7.0353468802313710 25.0040930573629367 17.2477005366283649
 10.0058829141263494 26.8996633392019717 17.2477005366283649
 12.9764189480213155 28.7952336210410031 17.2477005366283649
 15.9469549819162850 30.6908039028800417 17.2477005366283649
 18.9174910158112617 32.5863741847190695 17.2477005366283649
 -4.6904532535645691 13.9014671208771645 17.2477005366283649
 -1.7199172196696000 15.7970374027162066 17.2477005366283649
  1.2506188142253671 17.6926076845552380 17.2477005366283649
  4.2211548481203449 19.5881779663942730 17.2477005366283649
  7.1916908820153083 21.4837482482333009 17.2477005366283649
 10.1622269159102938 23.3793185300723358 17.2477005366283649
 13.1327629498052545 25.2748888119113744 17.2477005366283649
 16.1032989837002312 27.1704590937504058 17.2477005366283649
 19.0738350175952078 29.0660293755894408 17.2477005366283649
 -17.6670054016320819 30.9615996574284758 17.2477005366283649
 -1.5635732178856536 12.2766925935865636 17.2477005366283649
  1.4069628160093191 14.1722628754255986 17.2477005366283649
  4.3774988499043017 16.0678331572646371 17.2477005366283649
  7.3480348837992624 17.9634034391036650 17.2477005366283649
 10.3185709176942382 19.8589737209427035 17.2477005366283649
 13.2891069515892060 21.7545440027817385 17.2477005366283649
 16.2596429854841809 23.6501142846207735 17.2477005366283649
 19.2301790193791469 25.5456845664598085 17.2477005366283649
 22.2007150532741200 27.4412548482988399 17.2477005366283649
 -1.4072292161017064  8.7563477844569313 17.2477005366283649
  1.5633068177932699 10.6519180662959609 17.2477005366283649
  4.5338428516882354 12.5474883481349977 17.2477005366283649
  7.5043788855832174 14.4430586299740291 17.2477005366283649
 10.4749149194781790 16.3386289118130676 17.2477005366283649
 13.4454509533731592 18.2341991936521026 17.2477005366283649
 16.4159869872681199 20.1297694754911376 17.2477005366283649
 19.3865230211631001 22.0253397573301726 17.2477005366283649
 22.3570590550580697 23.9209100391692076 17.2477005366283649
 -14.3837813641692183 25.8164803210082425 17.2477005366283649
  1.7196508195772153  7.1315732571663331 17.2477005366283649
  4.6901868534721789  9.0271435390053618 17.2477005366283649
  7.6607228873671538 10.9227138208443968 17.2477005366283649
 10.6312589212621322 12.8182841026834264 17.2477005366283649
 13.6017949551570965 14.7138543845224614 17.2477005366283649
 16.5723309890520731 16.6094246663615017 17.2477005366283649
 19.5428670229470391 18.5049949482005367 17.2477005366283649
 22.5134030568420123 20.4005652300395752 17.2477005366283649
 25.4839390907369854 22.2961355118785995 17.2477005366283649
  1.8759948213611570  3.6112284480366963 17.2477005366283649
  4.8465308552561304  5.5067987298757313 17.2477005366283649
  7.8170668891510937  7.4023690117147627 17.2477005366283649
 10.7876029230460784  9.2979392935537977 17.2477005366283649
 13.7581389569410444 11.1935095753928291 17.2477005366283649
 16.7286749908360122 13.0890798572318641 17.2477005366283649
 19.6992110247309888 14.9846501390709026 17.2477005366283649
 22.6697470586259620 16.8802204209099393 17.2477005366283649
 25.6402830925209315 18.7757907027489637 17.2477005366283649
 -11.1005573267063458 20.6713609845880022 17.2477005366283649
  5.0028748570400801  1.9864539207460949 17.2477005366283649
  7.9734108909350470  3.8820242025851299 17.2477005366283649
 10.9439469248300156  5.7775944844241618 17.2477005366283649
 13.9144829587249905  7.6731647662631959 17.2477005366283649
 16.8850189926199583  9.5687350481022282 17.2477005366283649
 19.8555550265149350 11.4643053299412614 17.2477005366283649
 22.8260910604099081 13.3598756117802981 17.2477005366283649
 25.7966270943048777 15.2554458936193367 17.2477005366283649
 28.7671631281998437 17.1510161754583663 17.2477005366283649
  8.1297548927189904  0.3616793934554968 17.2477005366283649
 11.1002909266139635  2.2572496752945317 17.2477005366283649
 14.0708269605089384  4.1528199571335636 17.2477005366283649
 17.0413629944039009  6.0483902389725985 17.2477005366283649
 20.0118990282988811  7.9439605208116264 17.2477005366283649
 22.9824350621938542  9.8395308026506640 17.2477005366283649
 25.9529710960888309 11.7351010844896972 17.2477005366283649
 28.9235071299838040 13.6306713663287269 17.2477005366283649
 -7.8173332892434848 15.5262416481677743 17.2477005366283649
 14.2271709622928793  0.6324751480039305 17.2477005366283649
 17.1977069961878541  2.5280454298429618 17.2477005366283649
 20.1682430300828130  4.4236157116819967 17.2477005366283649
 23.1387790639778004  6.3191859935210255 17.2477005366283649
 26.1093150978727699  8.2147562753600631 17.2477005366283649
 29.0798511317677431 10.1103265571990999 17.2477005366283649
 32.0503871656627126 12.0058968390381331 17.2477005366283649
 20.3245870318667698  0.9032709025523605 17.2477005366283649
 23.2951230657617501  2.7988411843913954 17.2477005366283649
 26.2656590996567125  4.6944114662304264 17.2477005366283649
 29.2361951335516856  6.5899817480694622 17.2477005366283649
 32.2067311674466623  8.4855520299084972 17.2477005366283649
 -4.5341092517806292 10.3811223117475322 17.2477005366283649
 26.4220031014406658  1.1740666571007941 17.2477005366283649
 29.3925391353356247  3.0696369389398326 17.2477005366283649
 32.3630751692305978  4.9652072207788649 17.2477005366283649
 35.3336112031255780  6.8607775026178954 17.2477005366283649
 32.5194191710145475  1.4448624116492310 17.2477005366283649
 35.4899552049095277  3.3404326934882627 17.2477005366283649
 -1.2508852143177580  5.2360029753272972 17.2477005366283649
 38.6168352405884434  1.7156581661976611 17.2477005366283649
  2.0323388231451047  0.0908836389070633 17.2477005366283649
 -15.6345785258716674 31.0520043188776462 20.6701798857573600
 -15.4782345240877177 27.5316595097480104 20.6701798857573600
 -12.5076984901927482 29.4272297915870418 20.6701798857573600
 -9.5371624562977768 31.3228000734260803 20.6701798857573600
 -12.3513544884088020 25.9068849824574094 20.6701798857573600
 -9.3808184545138271 27.8024552642964444 20.6701798857573600
 -6.4102824206188549 29.6980255461354687 20.6701798857573600
 -3.4397463867238893 31.5935958279745073 20.6701798857573600
 -12.1950104866248541 22.3865401733277771 20.6701798857573600
 -9.2244744527298863 24.2821104551668085 20.6701798857573600
 -6.2539384188349025 26.1776807370058364 20.6701798857573600
 -3.2834023849399427 28.0732510188448749 20.6701798857573600
 -0.3128663510449657 29.9688213006839064 20.6701798857573600
  2.6576696828500044 31.8643915825229485 20.6701798857573600
 -9.0681304509459384 20.7617656460371762 20.6701798857573600
 -6.0975944170509662 22.6573359278762041 20.6701798857573600
 -3.1270583831559899 24.5529062097152391 20.6701798857573600
 -0.1565223492610278 26.4484764915542740 20.6701798857573600
  2.8140136846339470 28.3440467733933090 20.6701798857573600
  5.7845497185289192 30.2396170552323476 20.6701798857573600
  8.7550857524238896 32.1351873370713790 20.6701798857573600
 -8.9117864491619887 17.2414208369075297 20.6701798857573600
 -5.9412504152670174 19.1369911187465682 20.6701798857573600
 -2.9707143813720416 21.0325614005856067 20.6701798857573600
 -0.0001783474770757 22.9281316824246417 20.6701798857573600
  2.9703576864178918 24.8237019642636767 20.6701798857573600
  5.9408937203128698 26.7192722461027117 20.6701798857573600
  8.9114297542078322 28.6148425279417502 20.6701798857573600
 11.8819657881028125 30.5104128097807816 20.6701798857573600
 14.8525018219977838 32.4059830916198095 20.6701798857573600
 -5.7849064134830739 15.6166463096169377 20.6701798857573600
 -2.8143703795881017 17.5122165914559673 20.6701798857573600
  0.1561656543068697 19.4077868732950058 20.6701798857573600
  3.1267016882018313 21.3033571551340444 20.6701798857573600
  6.0972377220968097 23.1989274369730758 20.6701798857573600
  9.0677737559917855 25.0944977188121108 20.6701798857573600
 12.0383097898867515 26.9900680006511458 20.6701798857573600
 15.0088458237817317 28.8856382824901701 20.6701798857573600
 17.9793818576767030 30.7812085643292086 20.6701798857573600
 -5.6285624116991260 12.0963015004873053 20.6701798857573600
 -2.6580263778041608 13.9918717823263332 20.6701798857573600
  0.3125096560908176 15.8874420641653717 20.6701798857573600
  3.2830456899857823 17.7830123460044085 20.6701798857573600
  6.2535817238807576 19.6785826278434399 20.6701798857573600
  9.2241177577757263 21.5741529096824785 20.6701798857573600
 12.1946537916706923 23.4697231915215099 20.6701798857573600
 15.1651898255656725 25.3652934733605377 20.6701798857573600
 18.1357258594606456 27.2608637551995763 20.6701798857573600
 21.1062618933556188 29.1564340370386077 20.6701798857573600
 -2.5016823760202125 10.4715269731966991 20.6701798857573600
  0.4688536578747593 12.3670972550357376 20.6701798857573600
  3.4393896917697329 14.2626675368747726 20.6701798857573600
  6.4099257256647020 16.1582378187138005 20.6701798857573600
  9.3804617595596813 18.0538081005528426 20.6701798857573600
 12.3509977934546455 19.9493783823918669 20.6701798857573600
 15.3215338273496169 21.8449486642309054 20.6701798857573600
 18.2920698612445882 23.7405189460699404 20.6701798857573600
 21.2626058951395578 25.6360892279089789 20.6701798857573600
 -2.3453383742362610  6.9511821640670677 20.6701798857573600
  0.6251976596587003  8.8467524459061018 20.6701798857573600
  3.5957336935536821 10.7423227277451367 20.6701798857573600
  6.5662697274486481 12.6378930095841735 20.6701798857573600
  9.5368057613436203 14.5334632914232067 20.6701798857573600
 12.5073417952385988 16.4290335732622346 20.6701798857573600
 15.4778778291335701 18.3246038551012731 20.6701798857573600
 18.4484138630285379 20.2201741369403081 20.6701798857573600
 21.4189498969235075 22.1157444187793431 20.6701798857573600
 24.3894859308184735 24.0113147006183780 20.6701798857573600
  0.7815416614426501  5.3264076367764659 20.6701798857573600
  3.7520776953376225  7.2219779186155044 20.6701798857573600
  6.7226137292325969  9.1175482004545358 20.6701798857573600
  9.6931497631275629 11.0131184822935708 20.6701798857573600
 12.6636857970225449 12.9086887641326058 20.6701798857573600
 15.6342218309175109 14.8042590459716372 20.6701798857573600
 18.6047578648124876 16.6998293278106686 20.6701798857573600
 21.5752938987074607 18.5953996096497072 20.6701798857573600
 24.5458299326024303 20.4909698914887421 20.6701798857573600
  0.9378856632266047  1.8060628276468293 20.6701798857573600
  3.9084216971215660  3.7016331094858645 20.6701798857573600
  6.8789577310165457  5.5972033913249026 20.6701798857573600
  9.8494937649115109  7.4927736731639376 20.6701798857573600
 12.8200297988064822  9.3883439550029699 20.6701798857573600
 15.7905658327014624 11.2839142368420013 20.6701798857573600
 18.7611018665964302 13.1794845186810328 20.6701798857573600
 21.7316379004914033 15.0750548005200677 20.6701798857573600
 24.7021739343863764 16.9706250823591027 20.6701798857573600
 27.6727099682813460 18.8661953641981412 20.6701798857573600
  4.0647656989055143  0.1812883003562314 20.6701798857573600
  7.0353017328004874  2.0768585821952663 20.6701798857573600
 10.0058377666954623  3.9724288640343013 20.6701798857573600
 12.9763738005904337  5.8679991458733367 20.6701798857573600
 15.9469098344854103  7.7635694277123672 20.6701798857573600
 18.9174458683803763  9.6591397095513987 20.6701798857573600
 21.8879819022753459 11.5547099913904319 20.6701798857573600
 24.8585179361703190 13.4502802732294668 20.6701798857573600
 27.8290539700652992 15.3458505550685000 20.6701798857573600
 -12.6640424919766996 32.9475746007166777 20.6701798857573600
 10.1621817684794102  0.4520840549046649 20.6701798857573600
 13.1327178023743709  2.3476543367436999 20.6701798857573600
 16.1032538362693529  4.2432246185827349 20.6701798857573600
 19.0737898701643154  6.1387949004217699 20.6701798857573600
 22.0443259040592956  8.0343651822607978 20.6701798857573600
 25.0148619379542616  9.9299354640998345 20.6701798857573600
 27.9853979718492312 11.8255057459388677 20.6701798857573600
 30.9559340057442114 13.7210760277779027 20.6701798857573600
 -6.5666264224028037 33.2183703552651082 20.6701798857573600
 16.2595978380532991  0.7228798094531019 20.6701798857573600
 19.2301338719482722  2.6184500912921336 20.6701798857573600
 22.2006699058432275  4.5140203731311717 20.6701798857573600
 25.1712059397382113  6.4095906549701969 20.6701798857573600
 28.1417419736331844  8.3051609368092318 20.6701798857573600
 31.1122780075281611 10.2007312186482668 20.6701798857573600
 -0.4692103528289116 33.4891661098135458 20.6701798857573600
 22.3570139076271843  0.9936755640015354 20.6701798857573600
 25.3275499415221574  2.8892458458405637 20.6701798857573600
 28.2980859754171270  4.7848161276795986 20.6701798857573600
 31.2686220093121072  6.6803864095186301 20.6701798857573600
 34.2391580432070768  8.5759566913576659 20.6701798857573600
  5.6282057167449686 33.7599618643619834 20.6701798857573600
 28.4544299772010731  1.2644713185499656 20.6701798857573600
 31.4249660110960463  3.1600416003889973 20.6701798857573600
 34.3955020449910194  5.0556118822280318 20.6701798857573600
 11.7256217863188681 34.0307576189104068 20.6701798857573600
 34.5518460467749691  1.5352670730983959 20.6701798857573600
 37.5223820806699351  3.4308373549374305 20.6701798857573600
 17.8230378558927534 34.3015533734588445 20.6701798857573600
 -18.7614585615505760 32.6767788461682471 20.6701798857573600
 -15.6345785258716674 31.0520043188776462 24.2494320277573614
 -15.4782345240877177 27.5316595097480104 24.2494320277573614
 -12.5076984901927482 29.4272297915870418 24.2494320277573614
 -9.5371624562977768 31.3228000734260803 24.2494320277573614
 -12.3513544884088020 25.9068849824574094 24.2494320277573614
 -9.3808184545138271 27.8024552642964444 24.2494320277573614
 -6.4102824206188549 29.6980255461354687 24.2494320277573614
 -3.4397463867238893 31.5935958279745073 24.2494320277573614
 -12.1950104866248541 22.3865401733277771 24.2494320277573614
 -9.2244744527298863 24.2821104551668085 24.2494320277573614
 -6.2539384188349025 26.1776807370058364 24.2494320277573614
 -3.2834023849399427 28.0732510188448749 24.2494320277573614
 -0.3128663510449657 29.9688213006839064 24.2494320277573614
  2.6576696828500044 31.8643915825229485 24.2494320277573614
 -9.0681304509459384 20.7617656460371762 24.2494320277573614
 -6.0975944170509662 22.6573359278762041 24.2494320277573614
 -3.1270583831559899 24.5529062097152391 24.2494320277573614
 -0.1565223492610278 26.4484764915542740 24.2494320277573614
  2.8140136846339470 28.3440467733933090 24.2494320277573614
  5.7845497185289192 30.2396170552323476 24.2494320277573614
  8.7550857524238896 32.1351873370713790 24.2494320277573614
 -8.9117864491619887 17.2414208369075297 24.2494320277573614
 -5.9412504152670174 19.1369911187465682 24.2494320277573614
 -2.9707143813720416 21.0325614005856067 24.2494320277573614
 -0.0001783474770757 22.9281316824246417 24.2494320277573614
  2.9703576864178918 24.8237019642636767 24.2494320277573614
  5.9408937203128698 26.7192722461027117 24.2494320277573614
  8.9114297542078322 28.6148425279417502 24.2494320277573614
 11.8819657881028125 30.5104128097807816 24.2494320277573614
 14.8525018219977838 32.4059830916198095 24.2494320277573614
 -5.7849064134830739 15.6166463096169377 24.2494320277573614
 -2.8143703795881017 17.5122165914559673 24.2494320277573614
  0.1561656543068697 19.4077868732950058 24.2494320277573614
  3.1267016882018313 21.3033571551340444 24.2494320277573614
  6.0972377220968097 23.1989274369730758 24.2494320277573614
  9.0677737559917855 25.0944977188121108 24.2494320277573614
 12.0383097898867515 26.9900680006511458 24.2494320277573614
 15.0088458237817317 28.8856382824901701 24.2494320277573614
 17.9793818576767030 30.7812085643292086 24.2494320277573614
 -5.6285624116991260 12.0963015004873053 24.2494320277573614
 -2.6580263778041608 13.9918717823263332 24.2494320277573614
  0.3125096560908176 15.8874420641653717 24.2494320277573614
  3.2830456899857823 17.7830123460044085 24.2494320277573614
  6.2535817238807576 19.6785826278434399 24.2494320277573614
  9.2241177577757263 21.5741529096824785 24.2494320277573614
 12.1946537916706923 23.4697231915215099 24.2494320277573614
 15.1651898255656725 25.3652934733605377 24.2494320277573614
 18.1357258594606456 27.2608637551995763 24.2494320277573614
 21.1062618933556188 29.1564340370386077 24.2494320277573614
 -2.5016823760202125 10.4715269731966991 24.2494320277573614
  0.4688536578747593 12.3670972550357376 24.2494320277573614
  3.4393896917697329 14.2626675368747726 24.2494320277573614
  6.4099257256647020 16.1582378187138005 24.2494320277573614
  9.3804617595596813 18.0538081005528426 24.2494320277573614
 12.3509977934546455 19.9493783823918669 24.2494320277573614
 15.3215338273496169 21.8449486642309054 24.2494320277573614
 18.2920698612445882 23.7405189460699404 24.2494320277573614
 21.2626058951395578 25.6360892279089789 24.2494320277573614
 -2.3453383742362610  6.9511821640670677 24.2494320277573614
  0.6251976596587003  8.8467524459061018 24.2494320277573614
  3.5957336935536821 10.7423227277451367 24.2494320277573614
  6.5662697274486481 12.6378930095841735 24.2494320277573614
  9.5368057613436203 14.5334632914232067 24.2494320277573614
 12.5073417952385988 16.4290335732622346 24.2494320277573614
 15.4778778291335701 18.3246038551012731 24.2494320277573614
 18.4484138630285379 20.2201741369403081 24.2494320277573614
 21.4189498969235075 22.1157444187793431 24.2494320277573614
 24.3894859308184735 24.0113147006183780 24.2494320277573614
  0.7815416614426501  5.3264076367764659 24.2494320277573614
  3.7520776953376225  7.2219779186155044 24.2494320277573614
  6.7226137292325969  9.1175482004545358 24.2494320277573614
  9.6931497631275629 11.0131184822935708 24.2494320277573614
 12.6636857970225449 12.9086887641326058 24.2494320277573614
 15.6342218309175109 14.8042590459716372 24.2494320277573614
 18.6047578648124876 16.6998293278106686 24.2494320277573614
 21.5752938987074607 18.5953996096497072 24.2494320277573614
 24.5458299326024303 20.4909698914887421 24.2494320277573614
  0.9378856632266047  1.8060628276468293 24.2494320277573614
  3.9084216971215660  3.7016331094858645 24.2494320277573614
  6.8789577310165457  5.5972033913249026 24.2494320277573614
  9.8494937649115109  7.4927736731639376 24.2494320277573614
 12.8200297988064822  9.3883439550029699 24.2494320277573614
 15.7905658327014624 11.2839142368420013 24.2494320277573614
 18.7611018665964302 13.1794845186810328 24.2494320277573614
 21.7316379004914033 15.0750548005200677 24.2494320277573614
 24.7021739343863764 16.9706250823591027 24.2494320277573614
 27.6727099682813460 18.8661953641981412 24.2494320277573614
  4.0647656989055143  0.1812883003562314 24.2494320277573614
  7.0353017328004874  2.0768585821952663 24.2494320277573614
 10.0058377666954623  3.9724288640343013 24.2494320277573614
 12.9763738005904337  5.8679991458733367 24.2494320277573614
 15.9469098344854103  7.7635694277123672 24.2494320277573614
 18.9174458683803763  9.6591397095513987 24.2494320277573614
 21.8879819022753459 11.5547099913904319 24.2494320277573614
 24.8585179361703190 13.4502802732294668 24.2494320277573614
 27.8290539700652992 15.3458505550685000 24.2494320277573614
 -12.6640424919766996 32.9475746007166777 24.2494320277573614
 10.1621817684794102  0.4520840549046649 24.2494320277573614
 13.1327178023743709  2.3476543367436999 24.2494320277573614
 16.1032538362693529  4.2432246185827349 24.2494320277573614
 19.0737898701643154  6.1387949004217699 24.2494320277573614
 22.0443259040592956  8.0343651822607978 24.2494320277573614
 25.0148619379542616  9.9299354640998345 24.2494320277573614
 27.9853979718492312 11.8255057459388677 24.2494320277573614
 30.9559340057442114 13.7210760277779027 24.2494320277573614
 -6.5666264224028037 33.2183703552651082 24.2494320277573614
 16.2595978380532991  0.7228798094531019 24.2494320277573614
 19.2301338719482722  2.6184500912921336 24.2494320277573614
 22.2006699058432275  4.5140203731311717 24.2494320277573614
 25.1712059397382113  6.4095906549701969 24.2494320277573614
 28.1417419736331844  8.3051609368092318 24.2494320277573614
 31.1122780075281611 10.2007312186482668 24.2494320277573614
 -0.4692103528289116 33.4891661098135458 24.2494320277573614
 22.3570139076271843  0.9936755640015354 24.2494320277573614
 25.3275499415221574  2.8892458458405637 24.2494320277573614
 28.2980859754171270  4.7848161276795986 24.2494320277573614
 31.2686220093121072  6.6803864095186301 24.2494320277573614
 34.2391580432070768  8.5759566913576659 24.2494320277573614
  5.6282057167449686 33.7599618643619834 24.2494320277573614
 28.4544299772010731  1.2644713185499656 24.2494320277573614
 31.4249660110960463  3.1600416003889973 24.2494320277573614
 34.3955020449910194  5.0556118822280318 24.2494320277573614
 11.7256217863188681 34.0307576189104068 24.2494320277573614
 34.5518460467749691  1.5352670730983959 24.2494320277573614
 37.5223820806699351  3.4308373549374305 24.2494320277573614
 17.8230378558927534 34.3015533734588445 24.2494320277573614
 -18.7614585615505760 32.6767788461682471 24.2494320277573614
 -15.9473942692151631 30.6903041500827349  8.2486787124832031
 -12.8205142335362421 32.3150786773733358  8.2486787124832031
 -12.9768582353201847 28.7947338682437000  8.2486787124832031
 -9.8499781996412672 30.4195083955343009  8.2486787124832031
 -6.7230981639623550 32.0442829228249053  8.2486787124832031
 -13.1332022371041379 25.2743890591140676  8.2486787124832031
 -10.0063222014252151 26.8991635864046650  8.2486787124832031
 -6.8794421657462941 28.5239381136952623  8.2486787124832031
 -3.7525621300673784 30.1487126409858703  8.2486787124832031
 -0.6256820943884632 31.7734871682764712  8.2486787124832031
 -10.1626662032091577 23.3788187772750327  8.2486787124832031
 -7.0357861675302376 25.0035933045656265  8.2486787124832031
 -3.9089061318513267 26.6283678318562345  8.2486787124832031
 -0.7820260961724084 28.2531423591468354  8.2486787124832031
  2.3448539395065118 29.8779168864374363  8.2486787124832031
  5.4717339751854217 31.5026914137280372  8.2486787124832031
 -10.3190102049931109 19.8584739681453968  8.2486787124832031
 -7.1921301693141890 21.4832484954359941  8.2486787124832031
 -4.0652501336352680 23.1080230227265915  8.2486787124832031
 -0.9383700979563587 24.7327975500171995  8.2486787124832031
  2.1885099377225705 26.3575720773078004  8.2486787124832031
  5.3153899734014800 27.9823466045984013  8.2486787124832031
  8.4422700090803939 29.6071211318890022  8.2486787124832031
 11.5691500447593150 31.2318956591795995  8.2486787124832031
 -7.3484741710981378 17.9629036863063618  8.2486787124832031
 -4.2215941354192230 19.5876782135969663  8.2486787124832031
 -1.0947140997403042 21.2124527408875672  8.2486787124832031
  2.0321659359386182 22.8372272681781645  8.2486787124832031
  5.1590459716175383 24.4620017954687654  8.2486787124832031
  8.2859260072964478 26.0867763227593663  8.2486787124832031
 11.4128060429753777 27.7115508500499637  8.2486787124832031
 14.5396860786542810 29.3363253773405717  8.2486787124832031
 17.6665661143332073 30.9610999046311690  8.2486787124832031
 -7.5048181728820804 14.4425588771767277  8.2486787124832031
 -4.3779381372031629 16.0673334044673233  8.2486787124832031
 -1.2510581015242457 17.6921079317579313  8.2486787124832031
  1.8758219341546674 19.3168824590485322  8.2486787124832031
  5.0027019698335913 20.9416569863391331  8.2486787124832031
  8.1295820055125070 22.5664315136297304  8.2486787124832031
 11.2564620411914262 24.1912060409203313  8.2486787124832031
 14.3833420768703419 25.8159805682109287  8.2486787124832031
 17.5102221125492576 27.4407550955015367  8.2486787124832031
 20.6371021482281840 29.0655296227921340  8.2486787124832031
 -4.5342821389871109 12.5469885953376927  8.2486787124832031
 -1.4074021033081952 14.1717631226282936  8.2486787124832031
  1.7194779323707241 15.7965376499188963  8.2486787124832031
  4.8463579680496425 17.4213121772094972  8.2486787124832031
  7.9732380037285626 19.0460867045000981  8.2486787124832031
 11.1001180394074694 20.6708612317906990  8.2486787124832031
 14.2269980750863940 22.2956357590812928  8.2486787124832031
 17.3538781107653080 23.9204102863719008  8.2486787124832031
 20.4807581464442237 25.5451848136625017  8.2486787124832031
 23.6076381821231500 27.1699593409530991  8.2486787124832031
 -4.6906261407710534  9.0266437862080569  8.2486787124832031
 -1.5637461050921362 10.6514183134986613  8.2486787124832031
  1.5631339305867862 12.2761928407892604  8.2486787124832031
  4.6900139662656919 13.9009673680798613  8.2486787124832031
  7.8168940019446103 15.5257418953704622  8.2486787124832031
 10.9437740376235269 17.1505164226610631  8.2486787124832031
 14.0706540733024497 18.7752909499516605  8.2486787124832031
 17.1975341089813725 20.4000654772422649  8.2486787124832031
 20.3244141446602846 22.0248400045328658  8.2486787124832031
 23.4512941803392074 23.6496145318234667  8.2486787124832031
 -1.7200901068760857  7.1310735043690245  8.2486787124832031
  1.4067899288028314  8.7558480316596228  8.2486787124832031
  4.5336699644817511 10.3806225589502255  8.2486787124832031
  7.6605500001606757 12.0053970862408246  8.2486787124832031
 10.7874300358395896 13.6301716135314255  8.2486787124832031
 13.9143100715185035 15.2549461408220282  8.2486787124832031
 17.0411901071974192 16.8797206681126291  8.2486787124832031
 20.1680701428763420 18.5044951954032300  8.2486787124832031
 23.2949501785552506 20.1292697226938309  8.2486787124832031
 26.4218302142341734 21.7540442499844318  8.2486787124832031
 -1.8764341086600276  3.6107286952393887  8.2486787124832031
  1.2504459270188923  5.2355032225299896  8.2486787124832031
  4.3773259626978120  6.8602777498205914  8.2486787124832031
  7.5042059983767251  8.4850522771111887  8.2486787124832031
 10.6310860340556346 10.1098268044017896  8.2486787124832031
 13.7579660697345627 11.7346013316923923  8.2486787124832031
 16.8848461054134731 13.3593758589829967  8.2486787124832031
 20.0117261410923959 14.9841503862735994  8.2486787124832031
 23.1386061767713116 16.6089249135641914  8.2486787124832031
 26.2654862124502344 18.2336994408547959  8.2486787124832031
  1.0941019252349378  1.7151584134003606  8.2486787124832031
  4.2209819609138615  3.3399329406909550  8.2486787124832031
  7.3478619965927798  4.9647074679815564  8.2486787124832031
 10.4747420322716867  6.5894819952721608  8.2486787124832031
 13.6016220679506183  8.2142565225627582  8.2486787124832031
 16.7285021036295269  9.8390310498533609  8.2486787124832031
 19.8553821393084426 11.4638055771439582  8.2486787124832031
 22.9822621749873655 13.0885801044345609  8.2486787124832031
 26.1091422106662669 14.7133546317251636  8.2486787124832031
 29.2360222463452111 16.3381291590157609  8.2486787124832031
 -15.7910502674312134 34.2106489592123708  8.2486787124832031
  7.1915179948088346  1.4443626588519267  8.2486787124832031
 10.3183980304877441  3.0691371861425250  8.2486787124832031
 13.4452780661666669  4.6939117134331223  8.2486787124832031
 16.5721581018455879  6.3186862407237241  8.2486787124832031
 19.6990381375244965  7.9434607680143259  8.2486787124832031
 22.8259181732034229  9.5682352953049268  8.2486787124832031
 25.9527982088823350 11.1930098225955277  8.2486787124832031
 29.0796782445612543 12.8177843498861250  8.2486787124832031
 -9.6936341978573228 33.9398532046639403  8.2486787124832031
 13.2889340643827225  1.1735669043034931  8.2486787124832031
 16.4158141000616418  2.7983414315940909  8.2486787124832031
 19.5426941357405539  4.4231159588846891  8.2486787124832031
 22.6695741714194767  6.0478904861752900  8.2486787124832031
 25.7964542070983889  7.6726650134658918  8.2486787124832031
 28.9233342427773081  9.2974395407564927  8.2486787124832031
 32.0502142784562238 10.9222140680470954  8.2486787124832031
 -3.5962181282834380 33.6690574501155027  8.2486787124832031
 19.3863501339566113  0.9027711497550597  8.2486787124832031
 22.5132301696355199  2.5275456770456541  8.2486787124832031
 25.6401102053144463  4.1523202043362559  8.2486787124832031
 28.7669902409933620  5.7770947316268577  8.2486787124832031
 31.8938702766722848  7.4018692589174586  8.2486787124832031
  2.5011979412904464 33.3982616955670721  8.2486787124832031
 25.4837662035305001  0.6319753952066227  8.2486787124832031
 28.6106462392094194  2.2567499224972241  8.2486787124832031
 31.7375262748883280  3.8815244497878219  8.2486787124832031
 34.8644063105672544  5.5062989770784236  8.2486787124832031
  8.5986140108643490 33.1274659410186416  8.2486787124832031
 31.5811822731043890  0.3611796406581891  8.2486787124832031
 34.7080623087833118  1.9859541679487869  8.2486787124832031
 14.6960300804382324 32.8566701864702040  8.2486787124832031
 37.6785983426782778  0.0903838861097590  8.2486787124832031
 20.7934461500121266 32.5858744319217664  8.2486787124832031
 -15.6345333784407838 31.0518649089446193 15.4580744656283677
 -15.4781893766568359 27.5315200998149869 15.4580744656283677
 -12.5076533427618699 29.4270903816540113 15.4580744656283677
 -9.5371173088668861 31.3226606634930498 15.4580744656283677
 -12.3513093409779220 25.9067455725243789 15.4580744656283677
 -9.3807733070829453 27.8023158543634175 15.4580744656283677
 -6.4102372731879713 29.6978861362024489 15.4580744656283677
 -3.4397012392930111 31.5934564180414874 15.4580744656283677
 -12.1949653391939705 22.3864007633947466 15.4580744656283677
 -9.2244293052989974 24.2819710452337816 15.4580744656283677
 -6.2538932714040225 26.1775413270728166 15.4580744656283677
 -3.2833572375090623 28.0731116089118515 15.4580744656283677
 -0.3128212036140853 29.9686818907508830 15.4580744656283677
  2.6577148302808871 31.8642521725899215 15.4580744656283677
 -9.0680853035150584 20.7616262361041493 15.4580744656283677
 -6.0975492696200870 22.6571965179431842 15.4580744656283677
 -3.1270132357251077 24.5527667997822157 15.4580744656283677
 -0.1564772018301386 26.4483370816212506 15.4580744656283677
  2.8140588320648341 28.3439073634602856 15.4580744656283677
  5.7845948659598001 30.2394776452993135 15.4580744656283677
  8.7551308998547714 32.1350479271383520 15.4580744656283677
 -8.9117413017311087 17.2412814269745134 15.4580744656283677
 -5.9412052678361338 19.1368517088135484 15.4580744656283677
 -2.9706692339411647 21.0324219906525833 15.4580744656283677
 -0.0001332000462007 22.9279922724916183 15.4580744656283677
  2.9704028338487851 24.8235625543306497 15.4580744656283677
  5.9409388677437507 26.7191328361696883 15.4580744656283677
  8.9114749016387158 28.6147031180087161 15.4580744656283677
 11.8820109355336943 30.5102733998477511 15.4580744656283677
 14.8525469694286567 32.4058436816867896 15.4580744656283677
 -5.7848612660521894 15.6165068996839072 15.4580744656283677
 -2.8143252321572247 17.5120771815229510 15.4580744656283677
  0.1562108017377501 19.4076474633619824 15.4580744656283677
  3.1267468356327264 21.3032177452010174 15.4580744656283677
  6.0972828695276924 23.1987880270400453 15.4580744656283677
  9.0678189034226602 25.0943583088790803 15.4580744656283677
 12.0383549373176493 26.9899285907181152 15.4580744656283677
 15.0088909712126135 28.8854988725571502 15.4580744656283677
 17.9794270051075884 30.7810691543961852 15.4580744656283677
 -5.6285172642682433 12.0961620905542784 15.4580744656283677
 -2.6579812303732799 13.9917323723933098 15.4580744656283677
  0.3125548035217031 15.8873026542323412 15.4580744656283677
  3.2830908374166645 17.7828729360713851 15.4580744656283677
  6.2536268713116474 19.6784432179104094 15.4580744656283677
  9.2241629052066081 21.5740134997494479 15.4580744656283677
 12.1946989391015865 23.4695837815884829 15.4580744656283677
 15.1652349729965525 25.3651540634275143 15.4580744656283677
 18.1357710068915274 27.2607243452665529 15.4580744656283677
 21.1063070407865006 29.1562946271055843 15.4580744656283677
 -2.5016372285893325 10.4713875632636775 15.4580744656283677
  0.4688988053056439 12.3669578451027071 15.4580744656283677
  3.4394348392006187 14.2625281269417421 15.4580744656283677
  6.4099708730955838 16.1580984087807735 15.4580744656283677
  9.3805069069905578 18.0536686906198156 15.4580744656283677
 12.3510429408855273 19.9492389724588470 15.4580744656283677
 15.3215789747805022 21.8448092542978856 15.4580744656283677
 18.2921150086754700 23.7403795361369170 15.4580744656283677
 21.2626510425704502 25.6359498179759520 15.4580744656283677
 -2.3452932268053819  6.9510427541340398 15.4580744656283677
  0.6252428070895916  8.8466130359730748 15.4580744656283677
  3.5957788409845675 10.7421833178121062 15.4580744656283677
  6.5663148748795335 12.6377535996511412 15.4580744656283677
  9.5368509087745039 14.5333238814901762 15.4580744656283677
 12.5073869426694806 16.4288941633292076 15.4580744656283677
 15.4779229765644502 18.3244644451682497 15.4580744656283677
 18.4484590104594197 20.2200347270072811 15.4580744656283677
 21.4189950443543928 22.1156050088463161 15.4580744656283677
 24.3895310782493588 24.0111752906853511 15.4580744656283677
  0.7815868088735309  5.3262682268434425 15.4580744656283677
  3.7521228427685056  7.2218385086824766 15.4580744656283677
  6.7226588766634778  9.1174087905215124 15.4580744656283677
  9.6931949105584501 11.0129790723605403 15.4580744656283677
 12.6637309444534285 12.9085493541995753 15.4580744656283677
 15.6342669783483927 14.8041196360386103 15.4580744656283677
 18.6048030122433694 16.6996899178776488 15.4580744656283677
 21.5753390461383425 18.5952601997166838 15.4580744656283677
 24.5458750800333085 20.4908304815557152 15.4580744656283677
  0.9379308106574814  1.8059234177138057 15.4580744656283677
  3.9084668445524544  3.7014936995528407 15.4580744656283677
  6.8790028784474293  5.5970639813918757 15.4580744656283677
  9.8495389123423944  7.4926342632309071 15.4580744656283677
 12.8200749462373640  9.3882045450699412 15.4580744656283677
 15.7906109801323424 11.2837748269089744 15.4580744656283677
 18.7611470140273120 13.1793451087480040 15.4580744656283677
 21.7316830479222851 15.0749153905870426 15.4580744656283677
 24.7022190818172582 16.9704856724260829 15.4580744656283677
 27.6727551157122313 18.8660559542651107 15.4580744656283677
  4.0648108463363943  0.1811488904232078 15.4580744656283677
  7.0353468802313692  2.0767191722622393 15.4580744656283677
 10.0058829141263441  3.9722894541012743 15.4580744656283677
 12.9764189480213190  5.8678597359403053 15.4580744656283677
 15.9469549819162850  7.7634300177793412 15.4580744656283677
 18.9174910158112546  9.6590002996183770 15.4580744656283677
 21.8880270497062277 11.5545705814574067 15.4580744656283677
 24.8585630836012044 13.4501408632964417 15.4580744656283677
 27.8290991174961739 15.3457111451354784 15.4580744656283677
 -12.6639973445458125 32.9474351907836507 15.4580744656283677
 10.1622269159102903  0.4519446449716414 15.4580744656283677
 13.1327629498052545  2.3475149268106730 15.4580744656283677
 16.1032989837002347  4.2430852086497115 15.4580744656283677
 19.0738350175952007  6.1386554904887394 15.4580744656283677
 22.0443710514901774  8.0342257723277744 15.4580744656283677
 25.0149070853851434  9.9297960541668093 15.4580744656283677
 27.9854431192801165 11.8253663360058425 15.4580744656283677
 30.9559791531750896 13.7209366178448757 15.4580744656283677
 -6.5665812749719228 33.2182309453320883 15.4580744656283677
 16.2596429854841809  0.7227403995200750 15.4580744656283677
 19.2301790193791540  2.6183106813591031 15.4580744656283677
 22.2007150532741129  4.5138809631981420 15.4580744656283677
 25.1712510871690931  6.4094512450371735 15.4580744656283677
 28.1417871210640662  8.3050215268762084 15.4580744656283677
 31.1123231549590322 10.2005918087152416 15.4580744656283677
 -0.4691652053980219 33.4890266998805188 15.4580744656283677
 22.3570590550580661  0.9935361540685050 15.4580744656283677
 25.3275950889530428  2.8891064359075402 15.4580744656283677
 28.2981311228480088  4.7846767177465743 15.4580744656283677
 31.2686671567429819  6.6802469995856057 15.4580744656283677
 34.2392031906379586  8.5758172814246407 15.4580744656283677
  5.6282508641758557 33.7598224544289494 15.4580744656283677
 28.4544751246319585  1.2643319086169387 15.4580744656283677
 31.4250111585269316  3.1599021904559734 15.4580744656283677
 34.3955471924219012  5.0554724722950084 15.4580744656283677
 11.7256669337497481 34.0306182089773870 15.4580744656283677
 34.5518911942058509  1.5351276631653723 15.4580744656283677
 37.5224272281008169  3.4306979450044071 15.4580744656283677
 17.8230830033236316 34.3014139635258175 15.4580744656283677
 -18.7614134141196978 32.6766394362352202 15.4580744656283677
 -17.6670505490629637 30.9617390673614992 22.4598059567573607
 -14.6965145151679888 32.8573093492005341 22.4598059567573607
 -14.5401705133840498 29.3369645400709018 22.4598059567573607
 -14.3838265116001001 25.8166197309412659 22.4598059567573607
 -11.5696344794890660 31.2325348219099332 22.4598059567573607
 -11.4132904777051269 27.7121900127803009 22.4598059567573607
 -11.2569464759211773 24.1918452036506650 22.4598059567573607
 -11.1006024741372364 20.6715003945210327 22.4598059567573607
 -8.5990984455941017 33.1281051037489647 22.4598059567573607
 -8.4427544438101538 29.6077602946193359 22.4598059567573607
 -8.2864104420262024 26.0874154854897000 22.4598059567573607
 -8.1300664402422598 22.5670706763600641 22.4598059567573607
 -7.9737224384583136 19.0467258672304318 22.4598059567573607
 -7.8173784366743737 15.5263810581007906 22.4598059567573607
 -5.4722184099151869 31.5033305764583602 22.4598059567573607
 -5.3158744081312399 27.9829857673287279 22.4598059567573607
 -5.1595304063472911 24.4626409581990956 22.4598059567573607
 -5.0031864045633414 20.9422961490694597 22.4598059567573607
 -4.8468424027794024 17.4219513399398274 22.4598059567573607
 -4.6904984009954607 13.9016065308101933 22.4598059567573607
 -4.5341543992115101 10.3812617216805556 22.4598059567573607
 -2.5016823760202018 33.3989008582974023 22.4598059567573607
 -2.3453383742362695 29.8785560491677664 22.4598059567573607
 -2.1889943724523184 26.3582112400381305 22.4598059567573607
 -2.0326503706683767 22.8378664309084947 22.4598059567573607
 -1.8763063688844281 19.3175216217788623 22.4598059567573607
 -1.7199623671004769 15.7971768126492229 22.4598059567573607
 -1.5636183653165372 12.2768320035195906 22.4598059567573607
 -1.4072743635325866  8.7564871943899529 22.4598059567573607
 -1.2509303617486489  5.2361423852603250 22.4598059567573607
  0.6251976596587093 31.7741263310067978 22.4598059567573607
  0.7815416614426544 28.2537815218771655 22.4598059567573607
  0.9378856632266029 24.7334367127475332 22.4598059567573607
  1.0942296650105465 21.2130919036178973 22.4598059567573607
  1.2505736667944867 17.6927470944882614 22.4598059567573607
  1.4069176685784357 14.1724022853586256 22.4598059567573607
  1.5632616703623865 10.6520574762289897 22.4598059567573607
  1.7196056721463266  7.1317126670993565 22.4598059567573607
  1.8759496739302766  3.6113678579697197 22.4598059567573607
  2.0322936757142140  0.0910230488400903 22.4598059567573607
  3.5957336935536768 33.6696966128458328 22.4598059567573607
  3.7520776953376220 30.1493518037162005 22.4598059567573607
  3.9084216971215726 26.6290069945865646 22.4598059567573607
  4.0647656989055179 23.1086621854569323 22.4598059567573607
  4.2211097006894658 19.5883173763273000 22.4598059567573607
  4.3774537024734039 16.0679725671976570 22.4598059567573607
  4.5337977042573518 12.5476277580680247 22.4598059567573607
  4.6901417060412989  9.0272829489383923 22.4598059567573607
  4.8464857078252503  5.5069381398087547 22.4598059567573607
  5.0028297096091920  1.9865933306791181 22.4598059567573607
  6.7226137292325898 32.0449220855552284 22.4598059567573607
  6.8789577310165368 28.5245772764255996 22.4598059567573607
  7.0353017328004848 25.0042324672959673 22.4598059567573607
  7.1916457345844291 21.4838876581663314 22.4598059567573607
  7.3479897363683797 17.9635428490366955 22.4598059567573607
  7.5043337381523259 14.4431980399070543 22.4598059567573607
  7.6606777399362702 10.9228532307774220 22.4598059567573607
  7.8170217417202146  7.4025084216477897 22.4598059567573607
  7.9733657435041652  3.8821636125181533 22.4598059567573607
  8.1297097452881104  0.3618188033885238 22.4598059567573607
  9.6931497631275683 33.9404923673942633 22.4598059567573607
  9.8494937649115144 30.4201475582646346 22.4598059567573607
 10.0058377666954694 26.8998027491349987 22.4598059567573607
 10.1621817684794085 23.3794579400053628 22.4598059567573607
 10.3185257702633475 19.8591131308757305 22.4598059567573607
 10.4748697720473007 16.3387683217460875 22.4598059567573607
 10.6312137738312487 12.8184235126164570 22.4598059567573607
 10.7875577756151859  9.2980787034868246 22.4598059567573607
 10.9439017773991392  5.7777338943571879 22.4598059567573607
 11.1002457791830764  2.2573890852275520 22.4598059567573607
 12.8200297988064840 32.3157178401036660 22.4598059567573607
 12.9763738005904354 28.7953730309740266 22.4598059567573607
 13.1327178023743727 25.2750282218443942 22.4598059567573607
 13.2890618041583277 21.7546834127147584 22.4598059567573607
 13.4454058059422650 18.2343386035851260 22.4598059567573607
 13.6017498077262111 14.7139937944554937 22.4598059567573607
 13.7580938095101626 11.1936489853258561 22.4598059567573607
 13.9144378112941123  7.6733041761962237 22.4598059567573607
 14.0707818130780566  4.1529593670665905 22.4598059567573607
 14.2271258148619975  0.6326145579369540 22.4598059567573607
 15.7905658327014589 34.2112881219427010 22.4598059567573607
 15.9469098344854103 30.6909433128130615 22.4598059567573607
 16.1032538362693529 27.1705985036834292 22.4598059567573607
 16.2595978380532884 23.6502536945537969 22.4598059567573607
 16.4159418398372381 20.1299088854241646 22.4598059567573607
 16.5722858416211878 16.6095640762945287 22.4598059567573607
 16.7286298434051304 13.0892192671648875 22.4598059567573607
 16.8849738451890765  9.5688744580352587 22.4598059567573607
 17.0413178469730191  6.0485296489056219 22.4598059567573607
 17.1976618487569688  2.5281848397759852 22.4598059567573607
 18.9174458683803763 32.5865135946521036 22.4598059567573607
 19.0737898701643189 29.0661687855224677 22.4598059567573607
 19.2301338719482722 25.5458239763928319 22.4598059567573607
 19.3864778737322148 22.0254791672631960 22.4598059567573607
 19.5428218755161573 18.5051343581335637 22.4598059567573607
 19.6991658773001035 14.9847895490039260 22.4598059567573607
 19.8555098790840567 11.4644447398742901 22.4598059567573607
 20.0118538808679958  7.9440999307446569 22.4598059567573607
 20.1681978826519313  4.4237551216150237 22.4598059567573607
 20.3245418844358881  0.9034103124853875 22.4598059567573607
 22.2006699058432453 27.4413942582318633 22.4598059567573607
 22.3570139076271772 23.9210494491022310 22.4598059567573607
 22.5133579094111269 20.4007046399725986 22.4598059567573607
 22.6697019111950802 16.8803598308429592 22.4598059567573607
 22.8260459129790263 13.3600150217133216 22.4598059567573607
 22.9823899147629618  9.8396702125836928 22.4598059567573607
 23.1387339165469115  6.3193254034540560 22.4598059567573607
 23.2950779183308612  2.7989805943244228 22.4598059567573607
 25.4838939433061071 22.2962749218116301 22.4598059567573607
 25.6402379450900497 18.7759301126819977 22.4598059567573607
 25.7965819468739959 15.2555853035523548 22.4598059567573607
 25.9529259486579456 11.7352404944227189 22.4598059567573607
 26.1092699504418881  8.2148956852930901 22.4598059567573607
 26.2656139522258272  4.6945508761634569 22.4598059567573607
 26.4219579540097804  1.1742060670338210 22.4598059567573607
 28.7671179807689725 17.1511555853913933 22.4598059567573607
 28.9234619825529116 13.6308107762617539 22.4598059567573607
 29.0798059843368506 10.1104659671321251 22.4598059567573607
 29.2361499861208003  6.5901211580024883 22.4598059567573607
 29.3924939879047429  3.0697763488728560 22.4598059567573607
 32.0503420182318308 12.0060362489711565 22.4598059567573607
 32.2066860200157805  8.4856914398415206 22.4598059567573607
 32.3630300217997231  4.9653466307118910 22.4598059567573607
 32.5193740235836728  1.4450018215822547 22.4598059567573607
 35.3335660556946962  6.8609169125509188 22.4598059567573607
 35.4899100574786459  3.3405721034212896 22.4598059567573607
 38.6167900931575474  1.7157975761306881 22.4598059567573607
