Te Mo
 1.0000000000000000
    39.7113567004000032    0.0000222729000000   -0.0004006147000000
   -19.8556587443999994   34.3910667907000018    0.0007943100000000
    -0.0002267288000000    0.0005925125000000   35.0205229246000016
 Te  Mo
 762 381
Cartesian
 -14.8595515366999997 32.2940511074000014  6.2929758523999997
 -11.6963752540999995 33.8874119371999996  6.3457368677000003
 -11.9072913444000008 30.3609639945999987  6.3682520851000000
 -8.7572060753999992 31.9796468908000016  6.4175947253999999
 -5.6185654833000003 33.6350378790999969  6.4573046775999998
 -12.0992828517000000 26.8566279504999983  6.4078225570000003
 -8.9463648374000009 28.4667652971000003  6.4475060886000000
 -5.8096573321999996 30.1097221041999994  6.4796989845999997
 -2.6776248259000002 31.7872842537999993  6.4937467921999996
  0.4540299882000000 33.4848747352000018  6.4901835160000001
 -9.1093966481000006 24.9780761019999993  6.4761185164999997
 -5.9730763513999996 26.6073704561000000  6.5074714776000002
 -2.8498214705999998 28.2691748429000000  6.5207487673999998
  0.2708763974000000 29.9543415730000007  6.5143431304000003
  3.3927914475000001 31.6466383270000016  6.4905916306000000
  6.5198929091000002 33.3267129752000031  6.4457015561000004
 -9.2473688788999997 21.5063514685000001  6.4904198494000003
 -6.1063547014999999 23.1229667875999993  6.5205232541000004
 -2.9876713803000001 24.7674317970999986  6.5412830130000001
  0.1187227617000000 26.4371075212000015  6.5418403913000001
  3.2222978863999998 28.1181059849999997  6.5206641728000001
  6.3295993650000000 29.7910141342999992  6.4755395280999997
  9.4502866405999999 31.4407007713999995  6.4042459648000003
 12.5963899199000000 33.0595321854999966  6.3218350133000003
 -6.2207058128000003 19.6487000248000001  6.5142829948000003
 -3.0985898068000002 21.2756155948999996  6.5418093367000001
  0.0000320071000000 22.9276051313000018  6.5528514676000000
  3.0870731175000001 24.5950448287000007  6.5413753906999998
  6.1726257111000002 26.2601686078000007  6.5071638539999999
  9.2684261111000001 27.9043698736000003  6.4451198282000002
 12.3887514834000001 29.5203750961999987  6.3611253155999998
 15.5415324474999998 31.1098012277000002  6.2820523979000003
 18.7190505266999985 32.6857129993000015  6.2360956344999998
 -6.3340117624000003 16.1789312348999985  6.4937141997000003
 -3.2010203544000002 17.7889051269000014  6.5207740396000000
 -0.0994492192000000 19.4203217441000007  6.5413783644999999
  2.9799074581000000 21.0700136654000012  6.5418393149999998
  6.0506156392000001 22.7246086500000004  6.5207176864000003
  9.1239913528999992 24.3668417786999996  6.4789445853999998
 12.2166349375000003 25.9825458982999997  6.4143898989999997
 15.3398805557000006 27.5727611024999995  6.3393496671999996
 18.4978027649000012 29.1481306889000003  6.2810444748999998
 21.6756504626000002 30.7185879399999990  6.2647876962000000
 -3.3155138721999999 14.3060917087000004  6.4790807849999998
 -0.2002411026000000 15.9155410557000003  6.5071455508999998
  2.8839706375000000 17.5417329445999997  6.5205374502000000
  5.9498511232000002 19.1795915414999989  6.5142053944000002
  9.0113369066000004 20.8162558106000013  6.4935575112999997
 12.0818770779999998 22.4383367812000003  6.4563946690999998
 15.1761397240000004 24.0374692269999990  6.4044869018000004
 18.3034471719000003 25.6207377698999998  6.3514129783000000
 21.4628849921000011 27.1949398876999986  6.3215633883000004
 -15.0746524402999995 28.7714295671000002  6.3297088014999998
 -3.4625970521000000 10.8198635528999993  6.4144486031000003
 -0.3242542545000000 12.4123105806999998  6.4450894210999996
  2.7790330613999998 14.0142656814999995  6.4752946373000002
  5.8545304592000003 15.6298597478999994  6.4902450302999997
  8.9158981731000004 17.2556561254000016  6.4899265212000001
 11.9759325354000001 18.8824498407999997  6.4791515038999998
 15.0492538092999997 20.4986726375999986  6.4561730662999999
 18.1490850696000017 22.0995414447000016  6.4231699517000003
 21.2819617681999986 23.6868994977000007  6.3920528435000001
 24.4438623327999984 25.2684628352000011  6.3841906545000002
 -0.4848347863000000  8.9020202425000008  6.3610870443999996
  2.6473213630000001 10.4865779588999999  6.4040370826000004
  5.7459350601999999 12.0815379823000004  6.4452005040999998
  8.8193324553999997 13.6927722416000002  6.4722215356000001
 11.8820684717000002 15.3201032413000000  6.4857983653000000
 14.9472794820000008 16.9529171205000004  6.4869795607000000
 18.0284856303999987 18.5788819827000005  6.4753218859999997
 21.1383861971000009 20.1886762190999995  6.4543866309000002
 24.2817591216999986 21.7836929407000000  6.4387051720999997
 -12.2663449207999999 23.3748479156000002  6.4461477990000002
 -0.6839353563000000  5.3771054336999997  6.2818556779000003
  2.4762821410000000  6.9521667319000002  6.3223840305000003
  5.6065815887000001  8.5356816667000004  6.3819623146000000
  8.7051560516999995 10.1369623280999992  6.4385466682999999
 11.7822389570000006 11.7617084555000009  6.4774370660000002
 14.8522286333999993 13.4056751650999999  6.4992201221999997
 17.9284478338000000 15.0538646656000008  6.5034404617000003
 21.0243904995999991 16.6911153110999990  6.4940498303999998
 24.1504142759999993 18.3064337397999992  6.4772148832000003
 27.3041838788000000 19.9070300690000010  6.4719650753000000
  2.2708097572999999  3.4105713141999998  6.2607758327000003
  5.4283899541000000  4.9889853604000001  6.3196592660000004
  8.5563439365999994  6.5869490311999996  6.3918611336000000
 11.6578602605999997  8.2119671307999997  6.4544694350000000
 14.7441155013999996  9.8621925091999998  6.4940960100999998
 17.8291598558999986 11.5267189850000005  6.5118572595000002
 20.9234288440000000 13.1872633920000002  6.5118277805000000
 24.0391725546000004 14.8258137040999998  6.4989774568999996
 27.1822555856999983 16.4408270194000004  6.4855233540999997
 -9.3698054471999992 18.0419216342999995  6.4900223106999997
  5.2180594441999997  1.4422879351000000  6.2853411224000002
  8.3696654766999998  3.0388036905000000  6.3537354238999999
 11.4968955328000000  4.6671011481000004  6.4235536292999997
 14.6069243872999994  6.3236594546999996  6.4751613013000000
 17.7100693826999986  7.9997236488999999  6.5032721317000002
 20.8144074496999991  9.6773692830000009  6.5118034446999999
 23.9284673591999990 11.3376910498000001  6.5033190422000002
 27.0636698409000012 12.9698305593000001  6.4867724300000003
 30.2203950896000002 14.5784056313000008  6.4789367466999996
 11.3042787727000000  1.1230911751999999  6.4062268031000000
 14.4336349937000001  2.7835663368999999  6.4560672851999996
 17.5559066036999987  4.4684271345999997  6.4865624091000003
 20.6756573774000003  6.1598110483999999  6.4989630052000003
 23.7984020568999988  7.8379229700000002  6.4940513968999998
 26.9311884046000003  9.4884433701000006  6.4752630468000003
 30.0833633200999984 11.1086627318000009  6.4559886602000001
 -6.4645074293000002 12.7086623564999996  6.4566193720999996
 17.3704915178000014  0.9303503383000000  6.4786235319000003
 20.5027935136999986  2.6303501914999998  6.4854127302000002
 23.6343267690999994  4.3230882373000004  6.4772670326000004
 26.7702024630000004  5.9903306256000004  6.4543119050000000
 29.9196706823000014  7.6237008054000004  6.4228307130999998
 33.0845135742999972  9.2294238963000002  6.4041368884000001
 23.4435513174000008  0.7916176797000000  6.4719425157000003
 26.5796502110000006  2.4706820534000000  6.4383154191000003
 29.7274402727999991  4.1170038220000000  6.3908561412999996
 32.8918128245000005  5.7297014324999997  6.3498134803999999
 -3.6469442355999999  7.3201285198999999  6.3388177505999996
 29.5153521882000014  0.5878132826000000  6.3811233579000000
 32.6746688803999987  2.2066841206999999  6.3167503046000002
 35.8501734872999975  3.7979888196000000  6.2780775733000000
 35.6218339216000004  0.2603806899000000  6.2572063678000003
 -0.9066116337000000  1.8379641057000000  6.2341358134000000
 -17.8091346263999988 34.2569547414000013  6.2401110920000002
 -14.9212982207000007 32.3119017337999992  9.9105338621999994
 -11.7631107158999999 33.8852842252999977  9.9669471783999999
 -11.9804110030000004 30.3844407887000010  9.9910101431000005
 -8.8180225829999994 31.9901802754000002 10.0405372735000000
 -5.6543682113999996 33.6384317508999970 10.0795377644999995
 -12.1702535000999994 26.8919777818000014 10.0309851011000006
 -9.0118184675999995 28.4877173962000008 10.0737021271000007
 -5.8530364015999998 30.1285536476999987 10.1056987525000004
 -2.6951530720000001 31.8057490154000000 10.1164727482999997
  0.4623305857000000 33.5014161627999982 10.1114054815000003
 -9.1677558810999997 24.9940506915999983 10.1026962306999994
 -6.0173601372999999 26.6209799318999991 10.1352343331999997
 -2.8734043105999998 28.2900496180999994 10.1477307449000005
  0.2691507404000000 29.9826195658999985 10.1398597997000000
  3.4185591688999999 31.6784862503000006 10.1138629764000001
  6.5774224046000000 33.3562019616000001 10.0685082566999995
 -9.2876030232000009 21.5121255964000007 10.1137519994999998
 -6.1431690391000000 23.1206475317999995 10.1477552849000006
 -3.0096859644000000 24.7735935363000017 10.1693078581999998
  0.1145383948000000 26.4575777268999985 10.1689723642000001
  3.2390922643000000 28.1511867777000013 10.1478590600000000
  6.3747778640000003 29.8336831712000006 10.1019659601999994
  9.5213022109000001 31.4841042991000002 10.0276717743999999
 12.6700141194999993 33.0901759472000023  9.9426283688999995
 -6.2443936006999996 19.6331085143999999 10.1398173977999999
 -3.1142439056000000 21.2618131738999985 10.1689578537000003
  0.0000173261000000 22.9276032922000006 10.1808445442999993
  3.1035695386000000 24.6110340040999986 10.1694343046999993
  6.2077266112000000 26.2919840224999994 10.1350135579000007
  9.3226205798000006 27.9517111287000013 10.0711987057000005
 12.4499043206000000 29.5735297643999999  9.9840003130999992
 15.5861820045999995 31.1552982006000008  9.9015813228000003
 18.7263046863000007 32.7109251596999968  9.8536563228999992
 -6.3411695648000004 16.1543443877000001 10.1164925098000005
 -3.2073560134000001 17.7578501401000004 10.1477777280999995
 -0.0937749732000000 19.3981062723999997 10.1694382170999997
  2.9997691086999998 21.0633344792999999 10.1689958245999996
  6.0807941409000001 22.7346327330999998 10.1476851661000005
  9.1631242693000008 24.3958432461999983 10.1050193025000006
 12.2579806889000000 26.0328592217999990 10.0375933529000001
 15.3703484172000007 27.6361997037000009  9.9604022620000006
 18.4987446818000016 29.2076714186000004  9.9004429479000002
 21.6384823544999989 30.7597375833000015  9.8833576544999993
 -3.3098048692000002 14.2577181240000002 10.1050995230999998
 -0.1900436264000000 15.8692631166000009 10.1350047460999999
  2.9043523404000000 17.5105831366000011 10.1477457316000006
  5.9752516045000004 19.1668416346000008 10.1397689690000004
  9.0362974504999993 20.8223378662000016 10.1163434433999999
 12.1031781872999993 22.4688085137000009 10.0787760512000002
 15.1882913735000002 24.0938016007000009 10.0265959738999992
 18.2967598241999987 25.6915271553999993  9.9734156057999996
 21.4276324998000014 27.2597332455000014  9.9418370623999994
 -15.1371553434999999 28.8149141019999995  9.9506734822999992
 -3.4396343815999999 10.7586049982999992 10.0376208435999992
 -0.3100829854000000 12.3416506181999992 10.0711564427999996
  2.7935919139999998 13.9537873744999992 10.1016540774999992
  5.8693464873999996 15.5914250811000006 10.1135757336999994
  8.9260824314999994 17.2400234360000013 10.1111252388999997
 11.9793052622000005 18.8900379638999993 10.0996698727999998
 15.0448066121000004 20.5329944622000014 10.0784448669000000
 18.1347996898000012 22.1582027878999988 10.0460977136000000
 21.2512088968000015 23.7541206619000000 10.0149192719000002
 24.3897002158999996 25.3236782747000007 10.0055081993999995
 -0.4696080995000000  8.8222150866000000  9.9838689941999998
  2.6496742371000002 10.4036617868000008 10.0274641388999992
  5.7428751247000003 12.0171025917000005 10.0680664828000008
  8.8126245881000003 13.6554345613999999 10.0931301699000002
 11.8707125930000004 15.3078542704000000 10.1059590473000007
 14.9330057820000004 16.9646469370000013 10.1084307417999995
 18.0118586253000004 18.6140791780000008 10.0988316083999994
 21.1164192313999983 20.2398065317000011 10.0777100873999998
 24.2453352903000017 21.8336119868000011 10.0605614943999999
 -12.3197278662999992 23.4079411015999987 10.0690055470999997
 -0.6690280605000000  5.3145517267000004  9.9012341479000003
  2.4657805603999998  6.8740072085000001  9.9431990295000006
  5.5832019500000003  8.4595962292000006 10.0033152536000003
  8.6795309820999993 10.0797279882000002 10.0603159066999996
 11.7593627343999998 11.7309023092999993 10.0994679757999997
 14.8337389299000009 13.3980074596000005 10.1206819687999996
 17.9150549762000004 15.0668144301000009 10.1264870526999999
 21.0138074082000017 16.7203953518999988 10.1171113688999998
 24.1353449960000006 18.3415417773000016 10.0992660859000001
 27.2754990528999990 19.9310656842000000 10.0929554392000007
  2.2490096422999999  3.3639857164999998  9.8781896159000002
  5.3875498809000000  4.9293731933000000  9.9403880810000000
  8.5130824634000000  6.5275000458000001 10.0146523408999997
 11.6247063002999997  8.1674196749999997 10.0776513949000002
 14.7241368655000002  9.8381055038999996 10.1171289138000002
 17.8204627546000012 11.5214360069000001 10.1342918474000001
 20.9233446864000001 13.1974381344000005 10.1342762256000007
 24.0419082760999991 14.8456575599999994 10.1204936695000001
 27.1773598270999983 16.4567990088999991 10.1057240875000005
 -9.3883912534000000 18.0408825606000001 10.1112564916000007
  5.1651537454999996  1.4208279489000000  9.9045321669999993
  8.3129398678000008  3.0013984894000001  9.9749185371000006
 11.4542491182999999  4.6265777865000004 10.0464015375999995
 14.5850769408000005  6.2916274445000004 10.0985699374000006
 17.7055942361000014  7.9814520035000003 10.1262880474999992
 20.8232913567000004  9.6723803745999994 10.1342261903999997
 23.9464279711000003 11.3428503923000008 10.1263680303000001
 27.0810312772000010 12.9764416948000001 10.1082289664000005
 30.2252333162999989 14.5717643369999994 10.0994136571999995
 11.2516819463999997  1.1071657169000000 10.0279838422999994
 14.4068814730000003  2.7628672931999998 10.0782071748999993
 17.5529559615999986  4.4500655906000004 10.1080241788999992
 20.6914150937999999  6.1474284844999998 10.1204123141999993
 23.8291640744000013  7.8325043628000000 10.1171117698999993
 26.9701674008000012  9.4853251688999993 10.0987351474999993
 30.1154207555000006 11.0953959787999992 10.0782571877000002
 -6.4487053763000004 12.6749424837000007 10.0789167876000008
 17.3624188717999992  0.9294867307000000 10.0990728436000001
 20.5189350067999996  2.6265111709000002 10.1055433136000001
 23.6723799349999986  4.3185676850999997 10.0993121600000002
 26.8259110792999991  5.9836910415000002 10.0776069690999996
 29.9780645945000010  7.6063952794000000 10.0456911545000001
 33.1272341807000004  9.1902684366000003 10.0260931605000003
 23.4791257404999989  0.8043664480000000 10.0928600368999994
 26.6425924521999988  2.4769924609000000 10.0601232823999993
 29.8025734042000003  4.1089989099000004 10.0136387741000004
 32.9568056784000021  5.6984317886999998  9.9717681421000002
 -3.6078262562000001  7.2607219257000004  9.9597817613000004
 29.5941370134000010  0.6056807619000000 10.0025706744999994
 32.7497848213999987  2.2018172863999999  9.9375697370000005
 35.8992678091999977  3.7640547492000000  9.8971018380999993
 35.6728355893000000  0.2675703238000000  9.8752206503999993
 -0.8945104357000000  1.8163868284000000  9.8525594864000006
 -17.8411308109000011 34.2569836516999970  9.8583865446000001
 -14.6952040174000000 32.9716055621999971 13.7712005005999991
 -14.4737524468000007 29.4653605775999985 13.7397036998999997
 -11.5500576620000004 31.3909890358999988 13.7159914375999996
 -8.6130113533999992 33.2840218537999988 13.6759284882000003
 -11.3493795687999999 27.8665940021000011 13.6844659545000003
 -8.4102771271000005 29.7660052583000017 13.6623195231000008
 -5.4582828674000003 31.6277072912999984 13.6393566291999999
 -2.4988257377999998 33.4602597256999985 13.6213805885999992
 -11.1819248242999993 24.3149342339000007 13.6490851248999991
 -8.2376866219000000 26.2264778919000001 13.6390221079000007
 -5.2781807071999998 28.1002161474000012 13.6248829473999997
 -2.3083947426000000 29.9415333984999990 13.6166917972999997
  0.6629447925000000 31.7649045134999994 13.6168311017000008
  3.6280460256999998 33.5877231325000025 13.6245418684999997
 -8.1004606078000005 22.6626129718000016 13.6219437275999997
 -5.1363642625999999 24.5539978878000014 13.6106003848999997
 -2.1541225285999999 26.4109660949000009 13.6036561843000001
  0.8350794108000000 28.2457925605000000 13.6075442974000005
  3.8205455262000001 30.0754130726000000 13.6220420003000005
  6.7918857229000000 31.9179734291999999 13.6489950668999995
  9.7436983299000008 33.7893881214999965 13.6883204308999993
 -7.9848054145000003 19.0832743208999993 13.6166539283999999
 -5.0231794184999998 20.9918808293999994 13.6074449597000005
 -2.0368503757999998 22.8695886984000012 13.5973824096999998
  0.9681182873000000 24.7206742205000012 13.5973872519000007
  3.9765696480999999 26.5627244599000001 13.6105731031000001
  6.9753946023999998 28.4123183417999989 13.6388216650000000
  9.9511825352999992 30.2873528275000012 13.6836806940999995
 12.8980434383000002 32.1943576000999983 13.7378957948000000
 15.8218008486000006 34.1273105122999993 13.7845303698000006
 -4.9200120659000000 17.4217559020999992 13.6164953264000008
 -1.9395357727000000 19.3205731864000008 13.6035852897999998
  1.0687504359000000 21.1927764291999985 13.5973463403999997
  4.0936626353000003 23.0515484677000018 13.6035802615999994
  7.1185545150999996 24.9123932325000013 13.6246795713999997
 10.1268354985000002 26.7919939312000004 13.6616044441000000
 13.1035748631000004 28.6989770363000005 13.7139944968999998
 16.0456363461000002 30.6328350765000010 13.7682017856000005
 18.9636048429999988 32.5783664519999974 13.8035506725000001
 -4.8053698316000002 13.8509809685000000 13.6389257416999996
 -1.8404786030000000 15.7705488281000008 13.6246397778000006
  1.1597659604999999 17.6663761344999983 13.6104665740000002
  4.1881203545999997 19.5454157041999999 13.6073452602000007
  7.2283586973000000 21.4198285754999986 13.6164591300000009
 10.2634155195000005 23.3045466292000008 13.6389228012999997
 13.2749515966999994 25.2084899675999985 13.6747855393000002
 16.2487006349000005 27.1366434848000004 13.7222669715999999
 19.1855364560999995 29.0815846491000016 13.7660457418999993
 -17.6089679799000010 31.0304310281000006 13.7863573741999996
 -1.7169123055000000 12.2255265778000002 13.6614942919000004
  1.2621073092999999 14.1445355928000005 13.6385649490999992
  4.2798298329000000 16.0450859564999995 13.6217444143000002
  7.3218232807000003 17.9349116713000001 13.6165115174999993
 10.3709395071999992 19.8253513384999991 13.6210343391999995
 13.4083042116000009 21.7243080741000014 13.6360033761999997
 16.4154070547000011 23.6396994838000012 13.6648431218000006
 19.3831397649999992 25.5746231333000011 13.7032361947000005
 22.3169814604999992 27.5218493594999991 13.7343650242000006
 -1.5537432452000000  8.6941182012000002 13.7139173310999993
  1.3980098863999999 10.6298999927000004 13.6834471517999994
  4.3898709294999998 12.5505758090999997 13.6486070232000003
  7.4178998505999996 14.4556656037000000 13.6241195913999995
 10.4655700048000000 16.3506197712999999 13.6089081628000006
 13.5142912443000007 18.2422989145000010 13.6038363882999995
 16.5450676638999994 20.1412734811999989 13.6130052017000001
 19.5424224707000000 22.0564161580000011 13.6375545254000006
 22.5000289406000000 23.9920468745000015 13.6701351843999994
 -14.2783993541999994 25.9358945667999983 13.6888928934000003
  1.5761822587000001  7.1243768656000004 13.7380688322999998
  4.5345588773000003  9.0584383575000000 13.6881857804999996
  7.5335718075000004 10.9754759660999994 13.6407170828000002
 10.5641802215999991 12.8732444305999998 13.6054631455999999
 13.6087868454999992 14.7573270701000006 13.5830864865999992
 16.6478855989000003 16.6384349584999995 13.5765833914999998
 19.6640200510000014 18.5291619242999985 13.5876267464999998
 22.6452249535999997 20.4443793251000017 13.6144508808999998
 25.5936013457000016 22.3797903765000008 13.6406951414000002
  1.7885566208999999  3.6261337508000002 13.7852034763999995
  4.7191501291000000  5.5664533585999996 13.7347047523000008
  7.6840008262000001  7.4900123682000004 13.6702890258000007
 10.6837496042000009  9.3896345201999996 13.6143984157000002
 13.7088817001999992 11.2659083628999994 13.5770533040999997
 16.7402169701999988 13.1294566018999994 13.5586920376000002
 19.7608928711000011 14.9967034993000006 13.5589543133999992
 22.7575280207000006 16.8864030249000017 13.5771270734999998
 25.7218627278999996 18.8062170219999985 13.6054046130999993
 -11.0459913806000003 20.7398249991999997 13.6243785898999992
  4.9340223347999999  2.0746900081000001 13.7677939540000001
  7.8717453552999999  3.9993309739999998 13.7040536226000000
 10.8389307275999993  5.8963650061999999 13.6376673011000005
 13.8329140735999996  7.7653361263000003 13.5874326712000002
 16.8437168554000003  9.6154818327000005 13.5588473137999994
 19.8556410342999996 11.4639074497000006 13.5498956165000006
 22.8557676102999991 13.3293938639000000 13.5586175490999992
 25.8312568186999982 15.2274214548000000 13.5830125800000001
 28.7826404296999989 17.1528842604000005 13.6087484672999999
  8.0860930969000009  0.5042814775000000 13.7239671998000006
 11.0310990947000001  2.3967404674999999 13.6652224045999997
 13.9961820414999991  4.2581616522000001 13.6128145256999993
 16.9784264102000009  6.0986698739999996 13.5763579857999996
 19.9710962171999995  7.9331612160000002 13.5585389974999995
 22.9624717859000000  9.7798040684000007 13.5588096353999994
 25.9407597902999996 11.6549205095000001 13.5764381049999994
 28.8965599114000007 13.5667369944999994 13.6036300004000008
 -7.8721384659000000 15.4974512290999993 13.6211654401000004
 14.1935455694999995  0.7502050015000000 13.6357866714000000
 17.1561610109000000  2.5829486145999998 13.6035040504999998
 20.1270021413000002  4.4072814911000000 13.5828362612000006
 23.1006161038000002  6.2397173079000003 13.5769204578000000
 26.0700524686000001  8.0974738033999998 13.5874041460000008
 29.0256881001000018  9.9925550082000001 13.6127615455999997
 31.9650109013999995 11.9175676219000000 13.6356502026000008
 20.3187588472000016  0.8884912176000000 13.6085548428000003
 23.2809243521999996  2.7126040615000000 13.6051945211999996
 26.2379427370000009  4.5580529143000001 13.6141982850000005
 29.1854832188000017  6.4392261188999997 13.6372570486000004
 32.1202008484999979  8.3557031694999999 13.6645362459000008
 -4.6623221924999996 10.2909678813000003 13.6747772033999997
 26.4396825102000008  1.0369510784000000 13.6403578820000000
 29.3827816368999990  2.9101292908000000 13.6696391827999992
 32.3120103796999985  4.8182831764999996 13.7027045597000008
 35.2320407794000019  6.7517475862999996 13.7218167710000003
 32.5311642945000017  1.3042282997000001 13.7331664578999995
 35.4482067905999969  3.2363112398000000 13.7651448463000001
 -1.3497116505000000  5.1795874156000004 13.7682597613999995
 38.5880204114000023  1.6801735315999999 13.8027958787999996
  2.0173969336000002  0.1341536747000000 13.8046327938999998
 -14.6578985677000002 32.9478910214999985 17.3921985911999997
 -14.4501374493999997 29.4138508547000015 17.3620002012999990
 -11.5119301453999991 31.3548626364999983 17.3384195824000003
 -8.5748682269999996 33.2652855056999996 17.2988539527000000
 -11.3249437721999993 27.8153636593000009 17.3071841763999998
 -8.3833420595000003 29.7295104363000000 17.2850777614000002
 -5.4396587525999998 31.6084848363000006 17.2587999946000004
 -2.4922152854999999 33.4598628187000031 17.2377979496999991
 -11.1701199040999999 24.2678743636999990 17.2700983892000011
 -8.2188128883000005 26.1866841956999998 17.2604415835999987
 -5.2652266505999998 28.0725079101999988 17.2446563359999985
 -2.3080220090000001 29.9270889191000009 17.2339821837000002
  0.6494056692000000 31.7657765269000016 17.2329087877999996
  3.6014905033000000 33.6043383602999981 17.2422627826000010
 -8.0875302300000005 22.6351781167000006 17.2400277292000013
 -5.1239516277000003 24.5314171230999989 17.2294542443000012
 -2.1531033518000000 26.3955107839000007 17.2213930686999994
  0.8207025471000000 28.2385736244999990 17.2240205985000010
  3.7904985470999999 30.0778832786000017 17.2401090500999992
  6.7458219143000004 31.9311774588999988 17.2700109284999996
  9.6873235577999992 33.8116795035000024 17.3116603136000009
 -7.9787845242000000 19.0710371109000008 17.2327274418999998
 -5.0097586008999997 20.9829504100999991 17.2239319896999987
 -2.0301493027999999 22.8634431386000010 17.2144624495000009
  0.9595329891000000 24.7179253639999992 17.2144541571000005
  3.9509903628999998 26.5632367428000009 17.2294335726000014
  6.9319872385999997 28.4158639782999991 17.2602420549999991
  9.8956406449000003 30.2915825171999984 17.3063958378000002
 12.8426187223999992 32.1989855189999972 17.3604282442999995
 15.7831180936000006 34.1360341661999982 17.4058988763000002
 -4.9076980294999997 17.4291716637000000 17.2338261672999984
 -1.9266724634000001 19.3290953576000000 17.2213057061999990
  1.0707926135000001 21.2015859211999995 17.2144052633999998
  4.0799030473000002 23.0583503334000000 17.2212702341999986
  7.0883318518999996 24.9150371029000013 17.2444561796000002
 10.0825809088000007 26.7870355246999985 17.2844008154000015
 13.0545891905999998 28.6841188074999991 17.3366867505999984
 16.0066286095000017 30.6120247367999987 17.3895708953999986
 18.9498237467999999 32.5625527870000013 17.4250694199999998
 -4.7979653897999999 13.8763002039999996 17.2583828080999986
 -1.8229420873000000 15.7953620161000003 17.2443888950000002
  1.1731514663000000 17.6882598221000009 17.2293205152000013
  4.1891917986999996 19.5614180148000010 17.2238351093000013
  7.2158005774999996 21.4267263001000003 17.2337326198000014
 10.2378448132000006 23.2981655449000016 17.2583433552999992
 13.2402999642000001 25.1853437114999998 17.2977099420000009
 16.2154003559000017 27.0976957558000002 17.3453728833000014
 19.1691233799999985 29.0367223368000005 17.3877541543000014
 -17.5984215665999990 30.9921189537000004 17.4074457811999999
 -1.6988927789999999 12.2662974514999998 17.2843019162999987
  1.2870183907999999 14.1802821730000002 17.2599978382000003
  4.2971402771999996 16.0698463318000009 17.2398165797000011
  7.3294620537000004 17.9461446472999988 17.2325947472999985
 10.3674227655000006 19.8198406722000016 17.2374128681999998
 13.3934163780999995 21.6996474586000012 17.2565320934999988
 16.3937620220999989 23.5960146550999994 17.2886689943999983
 19.3652493153999998 25.5167335778999984 17.3274639617000012
 22.3181534383000013 27.4612375196000009 17.3568986330999984
 -1.5420817100999999  8.7440387030999993 17.3366473365999987
  1.4295784729000001 10.6759951458000000 17.3061932439000010
  4.4244769979000003 12.5839685781000004 17.2696599671000008
  7.4456625008000001 14.4703208567000008 17.2418587209999998
 10.4828665188999999 16.3465485340999983 17.2255178696000009
 13.5180056954999994 18.2200339806000002 17.2233429262000008
 16.5355700508000005 20.1022034589999983 17.2367875471999987
 19.5248777695999998 22.0033558495000001 17.2638773559000001
 22.4903532113999987 23.9303348364000001 17.2947853711000015
 -14.2693133671000005 25.8749909600000016 17.3121828322999995
  1.6078280025000000  7.1703793617000002 17.3605690242000001
  4.5822671956000001  9.0966077615999996 17.3115671095000003
  7.5796900670999996 10.9954482622000000 17.2630467910999990
 10.5990132597999995 12.8737452642000001 17.2255143225999987
 13.6275122045000003 14.7421603526999991 17.2036461432999985
 16.6487971051000017 16.6110285168999994 17.1995389016999987
 19.6502445580000007 18.4921077179000015 17.2131135043000008
 22.6273568199999993 20.3977728730000010 17.2393933190999995
 25.5879147447999991 22.3298870666000013 17.2629855379999988
  1.8147083958000001  3.6553309014000002 17.4066732639000001
  4.7704922635000004  5.5984879926000000 17.3571110130000008
  7.7424579923000003  7.5128498956999996 17.2949971192000014
 10.7331993853000007  9.3974772224999992 17.2393398466000001
 13.7398819720999992 11.2608527845000008 17.2003610195999990
 16.7508224844999987 13.1168355309999995 17.1826987441999997
 19.7532557379000018 14.9785741897999998 17.1834129657999988
 22.7378263778999994 16.8620656971999985 17.2004387612999992
 25.7049944267999990 18.7757903255000009 17.2254694137999991
 -11.0470444415000006 20.7083715668999986 17.2420911343999990
  4.9805426553999999  2.0837484297000000 17.3890479450000015
  7.9312905953000001  4.0136139747000001 17.3283754083999995
 10.8940118532000003  5.9080570682999998 17.2639663339999991
 13.8720148867000006  7.7720035715000000 17.2129439256999994
 16.8632773731999990  9.6178210977000003 17.1833052682999998
 19.8557443392999993 11.4639518396000000 17.1738264835000010
 22.8396225559000001 13.3264741440000005 17.1826235923999988
 25.8088854784000006 15.2187516213999992 17.2035513966000018
 28.7705844161999984 17.1398616335000007 17.2252911176000012
  8.1371584196000004  0.4949817557000000 17.3467243238000002
 11.0804573712999996  2.4001033334000001 17.2889966699999995
 14.0350559591999993  4.2695506193000003 17.2366383666000011
 17.0017457338000000  6.1130844336000001 17.1992835839999998
 19.9767494017000011  7.9485399977000002 17.1825945906999991
 22.9507153417999987  9.7954447490999996 17.1832779970000011
 25.9166886416000004 11.6677771233000005 17.1993626149000001
 28.8755578092000000 13.5746520200000003 17.2231297541999986
 -7.8750855946999998 15.5032465420999994 17.2375318047999997
 14.2226914743999995  0.7496185361000000 17.2563539060000011
 17.1736637955000013  2.5972277832000001 17.2230244831000014
 20.1307877126000001  4.4309791556000002 17.2033866742000008
 23.0894850086000005  6.2689638416999998 17.2002417076000000
 26.0449131869999988  8.1278757019000007 17.2128780606000014
 28.9967002188999992 10.0203066848999995 17.2365322570999986
 31.9512075320000015 11.9427472091000002 17.2562558736999989
 20.3136146567000004  0.9054652409000000 17.2251316798000005
 23.2631388287000007  2.7424375079000001 17.2252449546000008
 26.2066549166999998  4.5968344880999998 17.2391376236999996
 29.1484138261999988  6.4808506612999999 17.2635741582000009
 32.0932885552999991  8.3962463258000000 17.2883463360999983
 -4.6648897196999997 10.3325083374000002 17.2977097119999996
 26.3996451577999984  1.0668277407000000 17.2626670327999996
 29.3345069135999985  2.9492046809999999 17.2943234054999984
 32.2709241352999996  4.8624341276000003 17.3269512847000016
 35.2149453632000018  6.7998162045999999 17.3449362881000013
 32.4784732127999973  1.3327701298000001 17.3557532055000010
 35.4172524916999976  3.2721490288999999 17.3868747395999996
 -1.3487351830000001  5.2234964056999997 17.3896039191999989
 38.5799050277000006  1.6990206729999999 17.4242654220000013
  2.0361774855000001  0.1307399341000000 17.4256537513000005
 -15.6086742107000003 31.0867797808999988 20.7508200617999989
 -15.4333402008000000 27.5660909652000008 20.7165331536999986
 -12.4768936551999996 29.4739389982999995 20.7102226179999995
 -9.5225883157000002 31.3717953798000018 20.6865292375999985
 -12.3100987057999998 25.9497107876000008 20.6753920513000011
 -9.3525956208000007 27.8484324976000011 20.6660098768000005
 -6.3957555873000000 29.7355567204000018 20.6448729381999989
 -3.4349525497000002 31.6124560137000010 20.6203750234999994
 -12.1565249211000008 22.4201796255999994 20.6363951310000004
 -9.1937659534999998 24.3203769043999998 20.6367563869999984
 -6.2332798419000000 26.2106518520000016 20.6279824209999987
 -3.2715036157999999 28.0909619212999999 20.6147203033999986
 -0.3044837176000000 29.9638921063999994 20.6061173539999984
  2.6683370936999999 31.8339722428999998 20.6122956721999984
 -9.0471204756999999 20.7855506295999994 20.6122724682999987
 -6.0829983325999999 22.6808763505999984 20.6108029777000006
 -3.1167319298999998 24.5682452928000004 20.6041906863000008
 -0.1463182744000000 26.4459154753999997 20.6013500078999989
  2.8277196779999998 28.3192506488999989 20.6107589711999992
  5.8029251749000004 30.1935140006000005 20.6366059246999995
  8.7721270035999996 32.0777012253999985 20.6750854432000004
 -8.9088280312000006 17.2462873732000013 20.6039548088000011
 -5.9411718367999997 19.1460131563999987 20.6059672786000014
 -2.9736250600999998 21.0419782395000006 20.6012686699999996
  0.0000580256000000 22.9277892968000003 20.5969429326000011
  2.9790844576000000 24.8067252170000003 20.6041274899999998
  5.9597522863999997 26.6845335241000008 20.6277702478000009
  8.9377494234999997 28.5670532683000005 20.6656031501000008
 11.9076588057000006 30.4600559781999998 20.7096855602000005
 14.8703214291000005 32.3657478732000001 20.7502670424999991
 -5.8036168745000003 15.6106376551999997 20.6199926803000011
 -2.8356096053000002 17.5130068729999984 20.6144424274999984
  0.1377228063000000 19.4083980418000017 20.6040364509000007
  3.1200206733000000 21.2954241603999996 20.6012351635000002
  6.1072819678999997 23.1794049905999984 20.6144752460999996
  9.0936895931000006 25.0627923420000016 20.6444599645999993
 12.0741629204999992 26.9526669349000016 20.6859015476000003
 15.0459242050000004 28.8542917430999992 20.7287677746000014
 18.0084995982999985 30.7677876483000006 20.7621507690999998
 -5.6625867834000001 12.0766297676000001 20.6509665110999983
 -2.6977715123000001 13.9849650558000000 20.6443988135000005
  0.2736328331000000 15.8882006371000006 20.6275959256000014
  3.2553534849000001 17.7832260970999982 20.6106185613000008
  6.2457237010000002 19.6734207820999991 20.6058636897000014
  9.2387343310999999 21.5601897451999989 20.6199818659000016
 12.2287204571999997 23.4493479807000007 20.6509914809999984
 15.2110711553000009 25.3464916966000011 20.6899524700999997
 18.1831053511999983 27.2554422802000005 20.7262049531000017
 21.1462258622000014 29.1707495795000007 20.7487278754000002
 -2.5513564295000002 10.4588498779000005 20.6858243082000008
  0.4149610113000000 12.3678431975999992 20.6654131827000000
  3.3908575316000000 14.2694695474000000 20.6363406255999990
  6.3788603285000001 16.1638615702999999 20.6120094997999992
  9.3748350048999995 18.0532008676000011 20.6038164433000013
 12.3712188966000003 19.9438541662000013 20.6163016805000012
 15.3621291256999992 21.8394046989000010 20.6439455983999984
 18.3434161692999993 23.7430291723000018 20.6773499224999995
 21.3148635163000009 25.6536721641000014 20.7038955676999983
 -2.3904354134000001  6.9344178078000001 20.7286299685000017
  0.5693268682000000  8.8493347922000005 20.7095220104000006
  3.5380252591999999 10.7559516402999993 20.6748125368999993
  6.5178852960000002 12.6536927897999991 20.6360103224000007
  9.5101480828000007 14.5443469834000005 20.6056053179000003
 12.5073216733999999 16.4350564430000006 20.5935318705000014
 15.5026575485000002 18.3291497180999983 20.6034112616999998
 18.4907233897000012 20.2281099618000013 20.6270200676999984
 21.4685869009999983 22.1343361127000016 20.6521880443999990
 24.4385514872000016 24.0432686107000002 20.6699871584999997
  0.7383795717000000  5.3308038109000000 20.7501404282999999
  3.6997037922999998  7.2430112994000000 20.7159811197000003
  6.6704192337999997  9.1434205230999996 20.6699249481000003
  9.6523059847999999 11.0349310841000001 20.6245154413999998
 12.6441542069999997 12.9236066240999996 20.5911400051000015
 15.6382318167999994 14.8139558663000006 20.5786350362999997
 18.6282533147999985 16.7088450128999995 20.5865286292000000
 21.6113678888999985 18.6103373810000008 20.6058323799999989
 24.5857213359000006 20.5150957594999994 20.6245177710000007
  0.9225253287000000  1.8125054057000001 20.7747303141000010
  3.8759496115999998  3.7285594954999999 20.7485609531999984
  6.8376297351000002  5.6330606346999996 20.7038354662000010
  9.8086219643000003  7.5257597177999997 20.6521282295999988
 12.7890416627000008  9.4114504295000003 20.6057634325999999
 15.7774785632000007 11.2952274446000001 20.5744961410999991
 18.7658533648999999 13.1849287179000001 20.5657468654999995
 21.7485955424999986 15.0804480016000007 20.5745502470000012
 24.7254621127000007 16.9797667640000007 20.5910903271999999
 27.6960730435999984 18.8834896577000002 20.6054961512999988
  4.0618152634999998  0.2125779014000000 20.7619465386000002
  7.0163871392999999  2.1199775204000000 20.7261588231000005
  9.9781125302000007  4.0149609918999998 20.6773265994999988
 12.9483747155000000  5.8999906439999998 20.6268763013000012
 15.9273569745000003  7.7787383391000002 20.5862989648000010
 18.9104064341999987  9.6598692734000000 20.5656483405999992
 21.8909019164000007 11.5475864722000008 20.5656953091000005
 24.8654928059000007 13.4416455145999993 20.5785212189999989
 27.8348771524999989 15.3424983098999999 20.5933121288000009
 -12.6553442451000002 32.9946261913000001 20.7293915905000006
 10.1556171843000005  0.5004771975000000 20.6898901492999983
 13.1172399326000004  2.3848392269000001 20.6437474987999998
 16.0868619604999985  4.2616964486000004 20.6031324853999998
 19.0634184666000017  6.1367179303999997 20.5783822572000012
 22.0411048234000013  8.0166730993000002 20.5743698833000010
 25.0114307627000017  9.9047894718999991 20.5863089565999999
 27.9775108058999997 11.8014134740000003 20.6031467243000002
 30.9417198800000008 13.7059608223999998 20.6159652680999983
 -6.5659390265999997 33.2573172243999977 20.6515194372999993
 16.2542428749999992  0.7424060436000000 20.6159644779000004
 19.2249339558999992  2.6146846250000002 20.5931833729000004
 22.1975592836000004  4.4889854530999997 20.5908739945999990
 25.1666818369000005  6.3705489926999999 20.6055751365000006
 28.1280254644999985  8.2642313701999992 20.6266744997000018
 31.0878162425000006 10.1679895977000001 20.6435538389999991
 -0.4658888924000000 33.4838384928999986 20.6041536152000013
 22.3609188470000007  0.9644847345999999 20.6052285216000008
 25.3290115996000011  2.8423149713000000 20.6241947932000009
 28.2899539239000006  4.7322184251000001 20.6517725225000000
 31.2457273417999986  6.6343521251000004 20.6768953137000011
 34.2005647169999989  8.5452914808999996 20.6895079919000011
  5.6387026193000001 33.7094501962000024 20.6363342637999985
 28.4581413699000016  1.2056427368000000 20.6694248507000005
 31.4146527969000005  3.1056214056000000 20.7032767552999992
 34.3677154558000026  5.0169228739999996 20.7256165219999993
 11.7336175143000006 33.9742415170999976 20.7161198529000004
 34.5448198376000022  1.4930324753999999 20.7479722512000002
 37.4967620155000034  3.4119928865000002 20.7614940142000002
 17.8251687224999991 34.2844452252999972 20.7750261390000013
 -18.7477328408000012 32.6865066992999971 20.7754438549999989
 -15.5865666148000006 31.0660498652000001 24.3677763546000001
 -15.4164271382999996 27.5299583667000007 24.3361017814000000
 -12.4465503504000008 29.4502779789999991 24.3308758199000010
 -9.4833464596999999 31.3616573946999999 24.3087502105999995
 -12.2885674837999996 25.9155500052000001 24.2984766484000012
 -9.3223252691000003 27.8264259361999997 24.2903423421000006
 -6.3620916972000003 29.7262074735999988 24.2703632318000011
 -3.4077694372999998 31.6140630481000002 24.2459105936999997
 -12.1467199896999993 22.3877381638999999 24.2599387648000011
 -9.1754402150000001 24.2953726623999984 24.2624313439999995
 -6.2108545119000000 26.1955572331999988 24.2545375623000012
 -3.2516586631000002 28.0850873473999982 24.2420086509000008
 -0.2979001795000000 29.9645742456000015 24.2327614221000012
  2.6541134729999998 31.8384339957000009 24.2377479463999990
 -9.0438266335000002 20.7707548559000017 24.2377021148000011
 -6.0734096704000002 22.6706755760999989 24.2377658889999985
 -3.1062538036000000 24.5620052734000005 24.2328232690000007
 -0.1435634863000000 26.4423098946000010 24.2294944504999989
  2.8142602948000000 28.3160541196999986 24.2377427941000008
  5.7723052566000002 30.1900594775999984 24.2622530732000001
  8.7319827088000004 32.0760288550999988 24.2981985682000001
 -8.9199790457999999 17.2500617022000000 24.2287229922000016
 -5.9449840312999997 19.1511566434000002 24.2325819841999994
 -2.9717833892000001 21.0460147703000011 24.2294458410999987
  0.0001113044000000 22.9277254098999990 24.2261170690000007
  2.9686629120000001 24.8007651033999998 24.2327475993000014
  5.9356586032000003 26.6726374049999997 24.2542972859999999
  8.9037500491999992 28.5518290907000001 24.2899681759999986
 11.8720981759999997 30.4455382559000007 24.3304291691999985
 14.8413136525000002 32.3568926570999977 24.3673759769999982
 -5.8184870595999998 15.6331757447000008 24.2455749792999988
 -2.8404351681000000 17.5329095604999985 24.2417301119999991
  0.1379542262000000 19.4203871015000011 24.2326800957999993
  3.1156430077000001 21.2948568081000005 24.2293751983999996
  6.0924304735000003 23.1651814997000010 24.2417214692000016
  9.0689787902999992 25.0383887839999986 24.2699421716000003
 12.0458423412000002 26.9236673702000004 24.3082467655999999
 15.0215734742000002 28.8256418689000000 24.3480506022000007
 17.9969026543000012 30.7454844815999984 24.3787336713000009
 -5.6844306160000002 12.1106976450000001 24.2745573495999984
 -2.7064315872000000 14.0185823806999998 24.2698652125000010
  0.2755059904000000 15.9149450050999999 24.2541820797999996
  3.2594375741000001 17.7964218040000013 24.2375673101999993
  6.2432337348000004 19.6674152394000004 24.2324970841000003
  9.2266334091999997 21.5359258468999997 24.2455619017999986
 12.2102047165999998 23.4132785191999986 24.2745784286000017
 15.1925068141999997 25.3055697214000013 24.3114584731000001
 18.1734605372999987 27.2156575057000012 24.3450902408999994
 21.1518127512999996 29.1380367127000000 24.3661840058000010
 -2.5622404934000000 10.4978663363999996 24.3081195438000002
  0.4188373862000000 12.4049039832000005 24.2897916309999999
  3.4033259995999998 14.2976849313999992 24.2620180338000004
  6.3899391095000002 16.1739413296999999 24.2374353822999993
  9.3770975015999998 18.0415142883999984 24.2286011565000017
 12.3634810636000001 19.9125130984999998 24.2399477704000006
 15.3502040288000003 21.7956520018999989 24.2676027225999995
 18.3356457816000002 23.6957597196999998 24.2987351802999996
 21.3180867413000001 25.6091353776000012 24.3242155965999984
 -2.4029730759999999  6.9697563453000004 24.3479273798000015
  0.5746019110000000  8.8874295003999997 24.3302750394999983
  3.5567891377000000 10.7915939805000001 24.2979362097000013
  6.5410142757000003 12.6783079132999994 24.2595556224000006
  9.5273070013000005 14.5504417519999993 24.2294734118000008
 12.5133155828000007 16.4188578268999983 24.2182222365999991
 15.4991449386000006 18.2944715518000010 24.2274999454000017
 18.4847715904000012 20.1844681480999988 24.2502182939999997
 21.4688878667999994 22.0883729640000013 24.2751682550000005
 24.4489795745000009 24.0010157813999996 24.2925496376000005
  0.7452895898000000  5.3602482572000003 24.3671790870000002
  3.7225969951000000  7.2756514229000002 24.3355599741000006
  6.7017399667999999  9.1734931337999992 24.2924814186999996
  9.6821406602000000 11.0546996253999996 24.2479681284000002
 12.6644077925000005 12.9258739658999993 24.2153023157999989
 15.6455422276000000 14.7969167570000000 24.2028793672999996
 18.6261627816999997 16.6787834064000009 24.2112714752000002
 21.6079637716999997 18.5738215711000016 24.2293251729000012
 24.5880575392999994 20.4793316571999995 24.2479774066000004
  0.9291974428000001  1.8238715894999999 24.3895581527999994
  3.9015577824999998  3.7495604319000000 24.3659540589999999
  6.8745762197999998  5.6580283072000004 24.3240768731000010
  9.8482628530999996  7.5489824698000003 24.2751094477000002
 12.8223667145999993  9.4266460228000000 24.2291858094999988
 15.7960216908000000 11.2976674739000007 24.1990094456999998
 18.7684080356000003 13.1747917380999997 24.1900114351999989
 21.7415399857999994 15.0631567976999996 24.1991146637999996
 24.7174253409000002 16.9610121211000013 24.2152196641999993
 27.6928942006000014 18.8654869677999990 24.2293378932000003
  4.0869167401000004  0.2136047596000000 24.3784165864999984
  7.0555566219000001  2.1314205765000001 24.3449044856000008
 10.0229251399999999  4.0317946377000000 24.2986674795999988
 12.9892316244000003  5.9165707741000002 24.2500689043000008
 15.9545313155000006  7.7918866833999996 24.2110348960000010
 18.9178862895999984  9.6669779513999998 24.1899324932999988
 21.8809350215000009 11.5503789248000004 24.1899736224999984
 24.8472611396999987 13.4438019207000004 24.2027596882999987
 27.8180581672000002 15.3453789820999997 24.2179790773000008
 -12.6184335077000007 32.9877672163000000 24.3485845866000012
 10.2002732628999997  0.5048362740000000 24.3113228335000002
 13.1612357631000005  2.3963121752999998 24.2674037302999999
 16.1188021470999985  4.2758990510999997 24.2271972308999999
 19.0745213189000005  6.1514037049999999 24.2026381083999986
 22.0296644862000015  8.0313625532999993 24.1989316766999991
 24.9865464670000001  9.9215249580999991 24.2110468967000010
 27.9493872329999995 11.8217803454000006 24.2271910330999987
 30.9185548487000013 13.7283441814000007 24.2396037321000009
 -6.5253568308999998 33.2592040807000018 24.2750990942000016
 16.2854486676999990  0.7512916262000000 24.2396045642000004
 19.2360098262999983  2.6278755055000000 24.2178586013999997
 22.1854184847999996  4.5052634606000002 24.2150095709000013
 25.1369021812000000  6.3917125121999998 24.2290135892999992
 28.0933224386999996  8.2911664063000003 24.2498519897999998
 31.0559901383000003 10.2001752751999994 24.2672137536999983
 -0.4567352407000000 33.4915497381999998 24.2289543081999987
 22.3470873011000002  0.9761235576000000 24.2290914919000002
 25.2971427849000001  2.8580827858000002 24.2476330956000012
 28.2501177820999985  4.7548597671000001 24.2747468748999999
 31.2087902616999990  6.6646134033999997 24.2982996984000010
 34.1744957047000000  8.5817440604000002 24.3110107794000001
  5.6059054747000001 33.7170953270999973 24.2598707820000001
 28.4164974605000005  1.2176265655000000 24.2919594285000002
 31.3745978647999983  3.1249747775999999 24.3236016136999993
 34.3381696642999970  5.0450181893000003 24.3444945982000007
 11.6939874045999996 33.9775783110000020 24.3357474121000017
 34.5137615563999987  1.5045198988999999 24.3654632508000013
 37.4832215435000009  3.4330856769999998 24.3780968931000004
 17.8119034322999994 34.2843400201999984 24.3899018291000012
 -18.7410344484000007 32.6749843548000030 24.3902668749999982
 -16.0189304172999982 30.6107238232999990  8.0988317612999996
 -12.8547872913999992 32.1892235504000013  8.1416732268000001
 -13.0661637408000004 28.6803950534000016  8.1767119840000007
 -9.9060623387000000 30.2820198436000005  8.2232850734999996
 -6.7518963639000003 31.9226050645999990  8.2646390094999997
 -13.2497597713000008 25.1848399225999984  8.2227814027000008
 -10.0908791894000007 26.7797380031999985  8.2582373778000004
 -6.9389658219000001 28.4088343007999988  8.2953205371000003
 -3.7941430794000000 30.0753938249000008  8.3137076233999991
 -0.6510209934000000 31.7664856495000016  8.3123996195000007
 -10.2443607933000003 23.2928283253999986  8.2845614813000008
 -7.0938852117000000 24.9076767216999997  8.3194516429000007
 -3.9551111947000002 26.5596868344999990  8.3419106958999993
 -0.8249589952000000 28.2409061793000014  8.3428820685999998
  2.3043012991000000 29.9330366609000009  8.3242210499000002
  5.4387584710999999 31.6166597463000016  8.2844367356999999
 -10.3702511965999999 19.8179305580000005  8.2956322872000001
 -7.2190016395000001 21.4203237743999999  8.3240316684000000
 -4.0824988037000001 23.0533594348999991  8.3533369391000001
 -0.9617011603000000 24.7178652997000015  8.3646379948000007
  2.1502202040000000 26.4002632382000009  8.3534794380000008
  5.2618463230000003 28.0808423169999983  8.3193773725000000
  8.3817522304000001 29.7399309076999998  8.2561840257999997
 11.5151643140999997 31.3651958380000018  8.1701124523999997
 -7.3291962717999999 17.9442793511000005  8.3123813237000004
 -4.1889548557999996 19.5565234827000012  8.3429116894999993
 -1.0695026382999999 21.1995983925999987  8.3646773929999991
  2.0312758028000002 22.8652992178000005  8.3646959185000007
  5.1229551411000003 24.5366069136999982  8.3419878158999996
  8.2161793660000004 26.1956763750999997  8.2944031351999996
 11.3219875233000007 27.8277348939000007  8.2189159950999997
 14.4479039958000008 29.4275056064000005  8.1324522246999997
 17.5950627811999993 31.0022679932999985  8.0656270501999998
 -7.4400263405000002 14.4722947578000003  8.2884349532999995
 -4.2932354627000002 16.0679679791999988  8.3136625104000004
 -1.1679313877999999 17.6863978370999995  8.3420162186999995
  1.9323567949000000 19.3290601027000015  8.3534471832000001
  5.0138752065999999 20.9852352531000008  8.3428770494000002
  8.0871190958000003 22.6391174293000006  8.3135414533999992
 11.1656212493000009 24.2764354114999996  8.2632940594999997
 14.2628625031999992 25.8885249052999988  8.1951318173000001
 17.3852985097000001 27.4767202491999996  8.1280158920000005
 20.5319238671000015 29.0465139888000010  8.0903708667000007
 -4.4145011213999998 12.5830858321000001  8.2634563491000002
 -1.2777114325000001 14.1779548249000005  8.2944434473000008
  1.8319767458000000 15.7940473569000002  8.3192242216000007
  4.9147847840000001 17.4292019883000009  8.3240307937000004
  7.9801640303000001 19.0717047993000008  8.3122712976000006
 11.0423531491000002 20.7116593669999993  8.2882487164000000
 14.1148233319000003 22.3377538917000003  8.2502653690999992
 17.2105138669000013 23.9448646909000011  8.2022354630999992
 20.3345320076999982 25.5308021459000010  8.1614716526999995
 23.4842202140000005 27.1035147362999993  8.1503530863999991
 -4.5671220277000000  9.0945186824000004  8.1950565245000000
 -1.4173085675999999 10.6721224172000007  8.2189130622000004
  1.7088469599000000 12.2624962008999994  8.2559704225000008
  4.8056465610999997 13.8729142627000002  8.2840215753000006
  7.8780119627999996 15.5012175955000000  8.2955496296000000
 10.9372018314999995 17.1396485281999986  8.2953412375000006
 13.9977294664999992 18.7782004375000007  8.2854932612999992
 17.0734567677999998 20.4066993220999997  8.2640261738999996
 20.1760312944999995 22.0158087928999997  8.2345517163000004
 23.3075871031000013 23.6043505288999995  8.2140156482000002
 -1.5950114993000000  7.1648965916999998  8.1321826342999994
  1.5495696716000000  8.7362037019999992  8.1701609022999993
  4.6690707947999996 10.3242560124999994  8.2204785325999996
  7.7608775858000003 11.9353915182999994  8.2629480135000009
 10.8323405259999994 13.5692793555000009  8.2892652159000004
 13.8958885242000001 15.2170199920999991  8.3024414398000008
 16.9654732318000008 16.8651602127000011  8.3021362364000009
 20.0532834340000008 18.4997538842999987  8.2885051010000002
 23.1691392562000011 20.1102132617999985  8.2687051462000003
 26.3115319967999994 21.7019915519000008  8.2629856314999994
 -1.8049185061999999  3.6515543205999998  8.0640398995999991
  1.3525928913000000  5.2142926050999998  8.0894336369000008
  4.4953877931999999  6.7865487738999999  8.1463062232999999
  7.6147212346000002  8.3828330609999995  8.2132452966000002
 10.7105095318999997 10.0099131059000008  8.2687706954000006
 13.7907429575999991 11.6616100253999999  8.3033892043000002
 16.8679886743000012 13.3248882369999997  8.3188468370000006
 19.9536559844999992 14.9822529146000001  8.3175772142000000
 23.0595766679999983 16.6170426655999997  8.3032081252999994
 26.1908589322000012 18.2252737768000017  8.2889776821000005
  1.1302817235000000  1.6930749613000000  8.0423328782999999
  4.2890443951000004  3.2589782431000001  8.0896300567000008
  7.4324919146999999  4.8451218162999998  8.1614388129000002
 10.5564483403999994  6.4650203168000004  8.2345608521999996
 13.6632416277999997  8.1167616361999997  8.2884142208000000
 16.7594946958999991  9.7893024977999996  8.3175409708999997
 19.8556787766999996 11.4637817971999993  8.3263049345999995
 22.9613595179999983 13.1205657001000002  8.3187109676999995
 26.0860710094999995 14.7483664363999996  8.3021964634999996
 29.2304507630999986 16.3494264744999995  8.2950782497999995
 -15.7930420914000003 34.1284428714999990  8.0738556022000001
  7.2215026455000002  1.3173706989000000  8.1324564927999994
 10.3685063854999999  2.9322235785999999  8.2034661084000007
 13.5014315714999995  4.5827045652000002  8.2638770055999995
 16.6228364532999997  6.2600196183000003  8.3018426380000001
 19.7376945924000005  7.9458129983000001  8.3186723601000008
 22.8538546491999988  9.6196505531999996  8.3175249855000004
 25.9786130861999993 11.2659495047000000  8.3020200709999994
 29.1191996919999987 12.8795762885999991  8.2852748563999992
 -9.6973282557000005 33.7987244469000032  8.1991951543999999
 13.3083471749999998  1.0548990099000000  8.2505523973999999
 16.4498898265999998  2.7334178300000000  8.2850088672000002
 19.5850242875000013  4.4258328715999999  8.3020579815000008
 22.7167401345000002  6.1124781015999998  8.3032385620000007
 25.8503459502000013  7.7745162683000002  8.2884949531000007
 28.9917215669999990  9.4015885369000003  8.2638763451999999
 32.1432661679000020 10.9983158058000008  8.2500376101999997
 -3.6026396281999999 33.5983301613999998  8.2885155976000000
 19.3993590126000015  0.9022320919000000  8.2948041751999995
 22.5438744016999983  2.5965986943999999  8.2889913762000003
 25.6872377643000007  4.2708136634000002  8.2686990056000003
 28.8339599026000002  5.9099334722999997  8.2341540211000002
 31.9872204075000006  7.5134769170000002  8.2015387829000002
  2.4923328016999999 33.4632130472000000  8.2959428476999992
 25.4946538029000003  0.7536291634000000  8.2627689927999999
 28.6442029458000000  2.4033346586000000  8.2127082263000002
 31.7987578816000003  4.0146130431999998  8.1590711051000007
 34.9582813406999975  5.5959240657000002  8.1261325903999992
  8.5802370259000007 33.2727186080999999  8.2208301432000006
 31.5862185740999983  0.5001731370000000  8.1447551052999998
 34.7439672646000020  2.0851950597000002  8.0847542130000001
 14.6635337320999994 32.9557153268999983  8.0884131950999993
 37.6789372255000004  0.1335487890000000  8.0392621710000007
 20.7555328633000009 32.5644407646000005  8.0447641419000000
 -15.5787230690000005 31.1371193690000005 15.5824391211000002
 -15.3718579110999993 27.6152238913999994 15.5355897092999999
 -12.4391299569000005 29.5513382170000014 15.5273849247999998
 -9.5044502548000001 31.4601664017999987 15.4971138180000008
 -12.2547968601000008 26.0167162348999987 15.4860847031999995
 -9.3149639103999995 27.9307911994000015 15.4731460716000004
 -6.3697426096000003 29.8098244100000009 15.4516714206000003
 -3.4167206092000000 31.6577942002000015 15.4338410237999994
 -12.1035180224999994 22.4643782194000003 15.4478827532000000
 -9.1569096987999998 24.3864153104999986 15.4458096377000000
 -6.2043433144000000 26.2766398730999988 15.4331839127000006
 -3.2421069788999999 28.1333900821999983 15.4223849591000004
 -0.2742867081000000 29.9684726627000018 15.4207782229999992
  2.6923897880999998 31.7983136432999984 15.4292716033000001
 -9.0284603658000009 20.8240926801999997 15.4291141182999993
 -6.0717667984999997 22.7298168161000014 15.4204474875000006
 -3.1021213126000000 24.6025643346000003 15.4103285559999996
 -0.1203933530000000 26.4486587443000012 15.4089493305000005
  2.8645179910000000 28.2848608339000016 15.4205049683999995
  5.8416929927999997 30.1284140063999999 15.4457909961999995
  8.8024021288000007 31.9962889170000011 15.4856713534000008
 -8.9165423036000000 17.2494875942000014 15.4231006170999994
 -5.9604230672999998 19.1697820864999997 15.4206419139000008
 -2.9890820320999998 21.0629207001000012 15.4089026495999999
  0.0000137723000000 22.9276656744999983 15.4029614519999996
  3.0016036385999998 24.7767365310000010 15.4102920795999996
  6.0024922432999999 26.6262846656999983 15.4330749231999995
  8.9902441922000005 28.4931547955999989 15.4726240793999992
 11.9556986358999993 30.3888875905000013 15.5259021828999995
 14.8988585480999998 32.3150894325999971 15.5801181530000008
 -5.8521897653000003 15.6037295489000005 15.4336042675999998
 -2.8872585513000000 17.5171214392000003 15.4222493382000003
  0.1005894845000000 19.4037078387000008 15.4102598591000000
  3.1095294399000002 21.2714089842000007 15.4088392148000004
  6.1293913978000001 23.1325118343999989 15.4222110629000007
  9.1450361895000007 25.0029464634000007 15.4512786336999994
 12.1415201646999993 26.8927632311000018 15.4958864433999999
 15.1102285610999996 28.8102295286999990 15.5497108060000002
 18.0533066622000007 30.7509293073000016 15.5966159826999995
 -5.7308178974999997 12.0408103683000007 15.4601378498000006
 -2.7752570971999999 13.9703118413999992 15.4512403564999996
  0.2018910756000000 15.8800973744000000 15.4329425020999995
  3.2072857022000001 17.7683219723000008 15.4203044434999992
  6.2347410347999999 19.6447783324999996 15.4205281810999999
  9.2689149913000008 21.5215178977999990 15.4335271824000007
 12.2938357987000000 23.4081089559999995 15.4600902000999998
 15.2932483306000009 25.3139029804000018 15.4999468060000005
 18.2606107201999990 27.2426180930000008 15.5454417802999991
 21.2024336011000010 29.1888196055000009 15.5785932915000007
 -2.6369141655999999 10.4303725753999998 15.4957888782000008
  0.3247249126000000 12.3592121968999997 15.4723988637000005
  3.3152168957999999 14.2682517348999998 15.4454660411999996
  6.3360614812999998 16.1606290357000013 15.4289251748999998
  9.3758296478999998 18.0448306963000000 15.4229397071999994
 12.4173657054000000 19.9291970282000008 15.4283674141000002
 15.4418420973000003 21.8233393249000009 15.4477969991999995
 18.4363622478000018 23.7358444263000017 15.4801855303000000
 21.3986171726999999 25.6702618732999994 15.5160896425000008
 -2.4607197732000001  6.9007662007999997 15.5496953501000004
  0.4836797918000000  8.8432852742999994 15.5258063821000007
  3.4524443022000000 10.7703583083000005 15.4853860931000007
  6.4531903022000003 12.6774908104000001 15.4475473488000006
  9.4822216695999995 14.5686320894999994 15.4206508650000007
 12.5243052919999993 16.4505979642000000 15.4054781151999993
 15.5606072034000000 18.3332073457000000 15.4052397433999992
 18.5754162956999984 20.2273687932999984 15.4214894900000008
 21.5589547587999988 22.1437771695999999 15.4513759447000005
 24.5150845763000014 24.0801891808999997 15.4781557968999994
  0.6802675451000000  5.3314655158999997 15.5804725303999998
  3.6267964251000002  7.2717193830999998 15.5347885928000000
  6.6002987828000004  9.1912445852999998 15.4781867730999991
  9.6039330430999996 11.0881109346999995 15.4294524207000006
 12.6304718540999996 12.9671818855000005 15.3956850377999999
 15.6635358603999997 14.8379733687000002 15.3792621816999997
 18.6860377423000017 16.7136745337999990 15.3814253716000007
 21.6848716955999983 18.6090286638000002 15.4009941639000001
 24.6560703590999992 20.5304109011000016 15.4294679537999997
  0.8998218776000000  1.8212378839000001 15.6163959508999994
  3.8323252275000002  3.7681790027000002 15.5791709598000008
  6.7815226605000003  5.6972746014000002 15.5166092013999997
  9.7552112643999997  7.5992649911000001 15.4513997112000006
 12.7534413599000001  9.4755719910000007 15.4008523125999996
 15.7685878669000008 11.3357376270000003 15.3716131495999999
 18.7843637819999998 13.1942325586999996 15.3624331756999997
 21.7882673862999994 15.0677114717999991 15.3716361708000004
 24.7701613408999997 16.9697448631000007 15.3956680975999998
 27.7311362181999996 18.8955097858999999 15.4205097868000003
  4.0542133344000000  0.2599114881000000 15.5984635031999996
  6.9887973105999999  2.1937479374000000 15.5469944917999996
  9.9377020196999997  4.0989812176999996 15.4806034991000008
 12.9066015648000008  5.9735016023999998 15.4213737703000007
 15.8942119729000009  7.8261132872000001 15.3812350340999995
 18.8929732182999999  9.6709912712000001 15.3623643629999993
 21.8898367186000016 11.5266987424000007 15.3623570695999998
 24.8737663357999992 13.4075931730000004 15.3791621772999996
 27.8399577256999997 15.3199292614000004 15.4053104241999996
 -12.6492777270999994 33.0725834921000015 15.5523143723999997
 10.1427205723000000  0.5879748346000000 15.5007597946000004
 13.0912385343000004  2.4617969852999999 15.4477320570999996
 16.0543623382000007  4.3096263240999999 15.4049465218999995
 19.0298583673999993  6.1464084327000004 15.3790610131999994
 22.0103050447000008  7.9885108065999999 15.3715032734000001
 24.9868713116999999  9.8521874263000004 15.3812427139000008
 27.9521622118999993 11.7491547045000004 15.4050184999000006
 30.9059617899000010 13.6732809583999995 15.4280909221999991
 -6.5629221281000003 33.3342246077000013 15.4607898085999995
 16.2437715810999990  0.7895117498000001 15.4280204919999999
 19.2028312109000012  2.6214100351999998 15.4051622085000002
 22.1664825090000015  4.4550689068000002 15.3954715527000001
 25.1288021708999985  6.3074193421000002 15.4007562638000000
 28.0850886065999994  8.1911607549000003 15.4212377837000005
 31.0340451667999986 10.1069700349999998 15.4475016995000001
 -0.4592710150000000 33.4886777127000030 15.4233155110000002
 22.3536813875000000  0.9278679025000000 15.4203078207999997
 25.3070661478999988  2.7735805506000002 15.4292138704999999
 28.2528619487999997  4.6491316195000003 15.4510347827000007
 31.1930152450999998  6.5574109335999999 15.4798240735999997
 34.1312349008000027  8.4904153972999996 15.4995845761000002
  5.6503613619999999 33.6413345845000009 15.4479798089999996
 28.4516687021999992  1.1209113573000000 15.4776532606000004
 31.3870485123000016  3.0249070083000000 15.5154363548000003
 34.3178436824999977  4.9563082727000003 15.5448544211000002
 11.7452593622000006 33.8966985053000016 15.5345540207999999
 34.5323488466000015  1.4356219371000001 15.5771835103999994
 37.4598521886000029  3.3817155470000002 15.5959545447999997
 17.8292088717000006 34.2603966483999969 15.6158375895999999
 -18.7287674561999999 32.7020204900000024 15.6172277518999998
 -17.6341701614999984 30.9698454603000002 22.5720742930999982
 -14.6718320408000000 32.8918620290999968 22.5614971235999988
 -14.4950688265000007 29.3616085789999985 22.5394211165000016
 -14.3308581779999997 25.8318374412999994 22.5008470743999993
 -11.5350657812000001 31.2748011495000000 22.5226258747000010
 -11.3676406500000002 27.7434992256999990 22.4978866404000009
 -11.2132919796999992 24.2126630399999989 22.4624717660000002
 -11.0731483764000007 20.6816463725000013 22.4291575063999993
 -8.5770360342000007 33.1762917543000029 22.4897759527000005
 -8.4085427487000004 29.6466782241000004 22.4800195098000017
 -8.2503624633000001 26.1158467837999986 22.4572953537000011
 -8.1052658255000001 22.5851537021999995 22.4323582996000006
 -7.9698947623000000 19.0547053776000013 22.4186610912000006
 -7.8379921257999996 15.5251786351999996 22.4244865138000016
 -5.4510990902999996 31.5376254855999996 22.4521427200000012
 -5.2900372348999998 28.0091587826999984 22.4428912680000003
 -5.1392422402999998 24.4808116095000017 22.4275840520000003
 -4.9998901986000002 20.9535661032999982 22.4184920066999993
 -4.8656513063000002 17.4273815499999998 22.4260449410999989
 -4.7307120621000003 13.9019172349000009 22.4516745656999994
 -4.5868550936999997 10.3754021851000005 22.4890901053000007
 -2.4916522210999998 33.4170041900000001 22.4248477723999997
 -2.3305109012999998 29.8917725354999995 22.4263173956999999
 -2.1743581963000000 26.3672233244000012 22.4200135082999985
 -2.0289056463000001 22.8450822924999990 22.4140341445000004
 -1.8913892382999999 19.3249257129000007 22.4198592993999988
 -1.7555101069000001 15.8056914221000007 22.4425177353000009
 -1.6143965189000000 12.2861574317999995 22.4794129562000009
 -1.4611638038000001  8.7644645024999992 22.5219648309999982
 -1.2932607062000001  5.2394739456000003 22.5608323561000006
  0.6309053221000001 31.7664486122999996 22.4187967629000013
  0.7903614701000000 28.2449225527999985 22.4185376500000011
  0.9429737477000000 24.7262345400999983 22.4140445130999986
  1.0861619601000001 21.2119496022000007 22.4139877648000017
  1.2247054951000000 17.7004660877000006 22.4273458396000009
  1.3642522076000001 14.1886330141000006 22.4568348948999983
  1.5133054057999999 10.6751584854000008 22.4972923077999987
  1.6756534622999999  7.1577372601000002 22.5388343629000012
  1.8523997428000001  3.6351300404000000 22.5714474795999998
  2.0375121907999998  0.1071732295000000 22.5840256518999993
  3.5914837317999999 33.6404611422000031 22.4291849767999985
  3.7560309592999999 30.1184297044999987 22.4322696975000007
  3.9147285777000000 26.6019714638000018 22.4274648401000007
  4.0659691058999998 23.0911083047999988 22.4198685026000000
  4.2097403082999998 19.5847644227000011 22.4183932964000014
  4.3493809262000003 16.0796539337999995 22.4320408608000008
  4.4939017007000004 12.5742810171000006 22.4620031152999999
  4.6504370145999996  9.0648543967999995 22.5003236653000016
  4.8200987366000003  5.5498497374999998 22.5361060325999993
  4.9999664333000000  2.0280654633999999 22.5592457848000016
  6.7195086599999998 31.9962934099000016 22.4622892161999985
  6.8862852343999998 28.4787647194999991 22.4570426127999987
  7.0458062274000000 24.9684150996999996 22.4426028982999988
  7.1964089963999998 21.4640610577000004 22.4260067109999994
  7.3391976401000001 17.9620803269999989 22.4184930292999987
  7.4817932708999999 14.4611429444000006 22.4288635597000017
  7.6308972952999996 10.9576149479999998 22.4553728927999998
  7.7926044673000003  7.4498068497999999 22.4883159106000008
  7.9652830400000001  3.9349033475000001 22.5157393630000016
  8.1440455571000001  0.4124349831000000 22.5285752409999986
  9.6805291388000008 33.8865620993000007 22.5005672980000000
  9.8545043641000003 30.3645909883999998 22.4974685253000004
 10.0232229734999994 26.8503852559999991 22.4795244091000015
 10.1820722242000006 23.3436794345999985 22.4517091069999992
 10.3299082225000003 19.8410452494999987 22.4244448809999994
 10.4733334156000009 16.3405882548999983 22.4111145450000002
 10.6176765421999999 12.8395502205999996 22.4174409009999991
 10.7701058286000002  9.3360338792000004 22.4391462295999986
 10.9341308644000001  5.8269014743999996 22.4646623361000017
 11.1060871876000000  2.3097297389000002 22.4835334616999987
 12.8195033606000006 32.2639375406999989 22.5389630630999989
 12.9964132418999991 28.7439618400999990 22.5220836947999992
 13.1641407701999995 25.2315594830000016 22.4891492291000006
 13.3191004275000004 21.7246798548999998 22.4491687673000015
 13.4642653368000005 18.2210877318999991 22.4148892310999983
 13.6060746895999998 14.7188639727999995 22.3974942070999994
 13.7520357579999999 11.2149511510999993 22.4003348845999994
 13.9071714066999998  7.7075327784000001 22.4173046742000004
 14.0702727447000004  4.1935829066999997 22.4362566174999998
 14.2381667297999996  0.6728285040999999 22.4489151962000015
 15.7817639868999997 34.1782865678000007 22.5716866160000009
 15.9651449358999997 30.6519063524000011 22.5610136821999987
 16.1405758450000008 27.1325272151999997 22.5287038754999998
 16.3026897280000007 23.6187216430000007 22.4836261389999983
 16.4520689580000017 20.1096850664999991 22.4364769553999999
 16.5932406085000004 16.6020104884000013 22.3996324503000004
 16.7340065429000013 13.0935978990000006 22.3818429628000004
 16.8818171530000001  9.5835372120999995 22.3848495505999985
 17.0374002645000004  6.0697050315999999 22.3993559733000005
 17.1997377020999984  2.5503740522000000 22.4145179697000003
 18.9293830919000001 32.5735178432000012 22.5843935675999994
 19.1116662859000002 29.0475681331999986 22.5594880597999996
 19.2804700565000005 25.5261932696999985 22.5158264619000015
 19.4345808899999994 22.0090702329999992 22.4647206805999993
 19.5767586236000000 18.4940036425999992 22.4174745404000006
 19.7141157269000011 14.9798740951999996 22.3850011606999999
 19.8557300251999997 11.4640936559999993 22.3742263211000001
 20.0053841440999989  7.9458022196000000 22.3816904333999993
 20.1618493349999994  4.4242924893000000 22.3971663393999982
 20.3237475256000018  0.9003757620000000 22.4106960816999994
 22.2515612975999986 27.4424532449999994 22.5362460292999991
 22.4107847368000002 23.9182319853000003 22.4883784304999992
 22.5555692794000002 20.3964812464999987 22.4392274839000017
 22.6918252311999993 16.8746234370000003 22.4003728013999996
 22.8277971631000014 13.3528552206000004 22.3818332184999988
 22.9712451731999998  9.8288671203000000 22.3848632617999996
 23.1233380912999991  6.3027094691999999 22.4001635456999999
 23.2835822895000000  2.7759413823000001 22.4171330240000017
 25.5294907389000016 22.3043267199000006 22.4553695789000010
 25.6659833327999998 18.7767352742999982 22.4173756998000009
 25.7993196207000004 15.2490511563000002 22.3973536308999996
 25.9365502895000013 11.7205204176999995 22.3994353641999986
 26.0832787868999993  8.1907489820000006 22.4171766468000015
 26.2414978284000000  4.6597286588999998 22.4388589845000013
 26.4067662942999988  1.1302898273999999 22.4549099595999984
 28.7701592686000005 17.1512039338999998 22.4108880819000014
 28.9032693959000007 13.6207406287000001 22.4145859875000006
 29.0449044586999996 10.0889366501000008 22.4361376557000014
 29.1985384868999986  6.5563139295999999 22.4643102146999993
 29.3638100756000000  3.0242283904999998 22.4878443586000003
 32.0100419527000000 11.9946703239999994 22.4487930069999990
 32.1584870848000008  8.4637560376999996 22.4832180145000002
 32.3215033390000031  4.9311546914999997 22.5152566494000013
 32.4954631753000029  1.3999339373999999 22.5355117631000006
 35.2825540907000033  6.8472229141999996 22.5282022206000008
 35.4554376329000007  3.3166075039999998 22.5588179356000005
 38.6001083075000011  1.7115690607000000 22.5836864880999997
