BiTeI TeTe-AA 5.09 rigid OpenMX geometry
1.0
   48.8521468404   0.0000000000   0.0000000000
  -24.4260734207   42.3072001935   0.0000000000
   0.0000000000   0.0000000000   30.0000000000
  Bi  Te  I
  254  254  254
Cartesian
  -1.1539877550   2.2208504699   11.3716017370
   2.6926379805   4.2196158333   11.3716017370
  -0.9616564682   6.5515087574   11.3716017370
  -4.6159509170   8.8834016814   11.3716017370
   10.1935581646   3.8864882728   11.3716017370
   6.5392637159   6.2183811968   11.3716017370
   2.8849692672   8.5502741209   11.3716017370
  -0.7693251815   10.8821670449   11.3716017370
  -4.4236196302   13.2140599690   11.3716017370
  -8.0779140790   15.5459528930   11.3716017370
   17.6944783488   3.5533607122   11.3716017370
   14.0401839001   5.8852536362   11.3716017370
   10.3858894514   8.2171465603   11.3716017370
   6.7315950026   10.5490394843   11.3716017370
   3.0773005539   12.8809324084   11.3716017370
  -0.5769938948   15.2128253324   11.3716017370
  -4.2312883435   17.5447182565   11.3716017370
  -7.8855827922   19.8766111805   11.3716017370
  -11.5398772410   22.2085041046   11.3716017370
   25.1953985330   3.2202331516   11.3716017370
   21.5411040842   5.5521260757   11.3716017370
   17.8868096355   7.8840189997   11.3716017370
   14.2325151868   10.2159119238   11.3716017370
   10.5782207381   12.5478048478   11.3716017370
   6.9239262894   14.8796977719   11.3716017370
   3.2696318406   17.2115906959   11.3716017370
  -0.3846626081   19.5434836200   11.3716017370
  -4.0389570568   21.8753765440   11.3716017370
  -7.6932515055   24.2072694681   11.3716017370
  -11.3475459542   26.5391623921   11.3716017370
  -15.0018404030   28.8710553162   11.3716017370
   32.6963187171   2.8871055910   11.3716017370
   29.0420242684   5.2189985151   11.3716017370
   25.3877298197   7.5508914391   11.3716017370
   21.7334353710   9.8827843632   11.3716017370
   18.0791409222   12.2146772872   11.3716017370
   14.4248464735   14.5465702113   11.3716017370
   10.7705520248   16.8784631353   11.3716017370
   7.1162575761   19.2103560594   11.3716017370
   3.4619631274   21.5422489834   11.3716017370
  -0.1923313214   23.8741419075   11.3716017370
  -3.8466257701   26.2060348315   11.3716017370
  -7.5009202188   28.5379277556   11.3716017370
  -11.1552146675   30.8698206796   11.3716017370
  -14.8095091162   33.2017136037   11.3716017370
  -18.4638035650   35.5336065277   11.3716017370
   40.1972389013   2.5539780304   11.3716017370
   36.5429444526   4.8858709545   11.3716017370
   32.8886500038   7.2177638785   11.3716017370
   29.2343555551   9.5496568026   11.3716017370
   25.5800611064   11.8815497267   11.3716017370
   21.9257666577   14.2134426507   11.3716017370
   18.2714722090   16.5453355748   11.3716017370
   14.6171777602   18.8772284988   11.3716017370
   10.9628833115   21.2091214229   11.3716017370
   7.3085888628   23.5410143469   11.3716017370
   3.6542944141   25.8729072710   11.3716017370
  -0.0000000346   28.2048001950   11.3716017370
  -3.6542944834   30.5366931191   11.3716017370
  -7.3085889321   32.8685860431   11.3716017370
  -10.9628833808   35.2004789672   11.3716017370
  -14.6171778295   37.5323718912   11.3716017370
  -18.2714722782   39.8642648153   11.3716017370
  -21.9257667269   42.1961577393   11.3716017370
   44.0438646367   4.5527433939   11.3716017370
   40.3895701880   6.8846363180   11.3716017370
   36.7352757393   9.2165292420   11.3716017370
   33.0809812906   11.5484221661   11.3716017370
   29.4266868418   13.8803150901   11.3716017370
   25.7723923931   16.2122080142   11.3716017370
   22.1180979444   18.5441009382   11.3716017370
   18.4638034957   20.8759938623   11.3716017370
   14.8095090470   23.2078867863   11.3716017370
   11.1552145982   25.5397797104   11.3716017370
   7.5009201495   27.8716726344   11.3716017370
   3.8466257008   30.2035655585   11.3716017370
   0.1923312521   32.5354584825   11.3716017370
  -3.4619631966   34.8673514066   11.3716017370
  -7.1162576454   37.1992443306   11.3716017370
  -10.7705520941   39.5311372547   11.3716017370
  -14.4248465428   41.8630301787   11.3716017370
   6.3469324292   1.8877229093   11.3716017370
   40.5819014747   11.2152946055   11.3716017370
   36.9276070260   13.5471875295   11.3716017370
   33.2733125773   15.8790804536   11.3716017370
   29.6190181286   18.2109733776   11.3716017370
   25.9647236798   20.5428663017   11.3716017370
   22.3104292311   22.8747592257   11.3716017370
   18.6561347824   25.2066521498   11.3716017370
   15.0018403337   27.5385450738   11.3716017370
   11.3475458850   29.8704379979   11.3716017370
   7.6932514362   32.2023309219   11.3716017370
   4.0389569875   34.5342238460   11.3716017370
   0.3846625388   36.8661167700   11.3716017370
  -3.2696319099   39.1980096941   11.3716017370
  -6.9239263586   41.5299026181   11.3716017370
   13.8478526134   1.5545953487   11.3716017370
   37.1199383127   17.8778458171   11.3716017370
   33.4656438640   20.2097387411   11.3716017370
   29.8113494153   22.5416316652   11.3716017370
   26.1570549666   24.8735245892   11.3716017370
   22.5027605178   27.2054175133   11.3716017370
   18.8484660691   29.5373104373   11.3716017370
   15.1941716204   31.8692033614   11.3716017370
   11.5398771717   34.2010962854   11.3716017370
   7.8855827230   36.5329892095   11.3716017370
   4.2312882743   38.8648821335   11.3716017370
   0.5769938255   41.1967750576   11.3716017370
   21.3487727975   1.2214677881   11.3716017370
   33.6579751507   24.5403970286   11.3716017370
   30.0036807020   26.8722899527   11.3716017370
   26.3493862533   29.2041828767   11.3716017370
   22.6950918046   31.5360758008   11.3716017370
   19.0407973558   33.8679687248   11.3716017370
   15.3865029071   36.1998616489   11.3716017370
   11.7322084584   38.5317545729   11.3716017370
   8.0779140097   40.8636474970   11.3716017370
   28.8496929817   0.8883402276   11.3716017370
   30.1960119887   31.2029482402   11.3716017370
   26.5417175400   33.5348411643   11.3716017370
   22.8874230913   35.8667340883   11.3716017370
   19.2331286426   38.1986270124   11.3716017370
   15.5788341939   40.5305199364   11.3716017370
   36.3506131658   0.5552126670   11.3716017370
   26.7340488267   37.8654994518   11.3716017370
   23.0797543780   40.1973923758   11.3716017370
   43.8515333500   0.2220851064   11.3716017370
   47.5058277929   2.1098079464   18.3716017370
   6.1546011367   2.4429355070   18.3716017370
   2.3079754012   4.4417008704   18.3716017370
  -1.5386503343   6.4404662339   18.3716017370
   13.6555213208   2.7760630675   18.3716017370
   9.8088955854   4.7748284310   18.3716017370
   5.9622698499   6.7735937945   18.3716017370
   2.1156441144   8.7723591579   18.3716017370
  -1.7309816211   10.7711245214   18.3716017370
  -5.5776073566   12.7698898849   18.3716017370
   21.1564415050   3.1091906281   18.3716017370
   17.3098157695   5.1079559916   18.3716017370
   13.4631900340   7.1067213551   18.3716017370
   9.6165642985   9.1054867185   18.3716017370
   5.7699385630   11.1042520820   18.3716017370
   1.9233128276   13.1030174455   18.3716017370
  -1.9233129079   15.1017828089   18.3716017370
  -5.7699386434   17.1005481724   18.3716017370
  -9.6165643789   19.0993135359   18.3716017370
   28.6573616892   3.4423181887   18.3716017370
   24.8107359537   5.4410835522   18.3716017370
   20.9641102182   7.4398489156   18.3716017370
   17.1174844827   9.4386142791   18.3716017370
   13.2708587472   11.4373796426   18.3716017370
   9.4242330117   13.4361450060   18.3716017370
   5.5776072762   15.4349103695   18.3716017370
   1.7309815407   17.4336757330   18.3716017370
  -2.1156441948   19.4324410965   18.3716017370
  -5.9622699302   21.4312064599   18.3716017370
  -9.8088956657   23.4299718234   18.3716017370
  -13.6555214012   25.4287371869   18.3716017370
   36.1582818733   3.7754457493   18.3716017370
   32.3116561378   5.7742111127   18.3716017370
   28.4650304023   7.7729764762   18.3716017370
   24.6184046668   9.7717418397   18.3716017370
   20.7717789314   11.7705072032   18.3716017370
   16.9251531959   13.7692725666   18.3716017370
   13.0785274604   15.7680379301   18.3716017370
   9.2319017249   17.7668032936   18.3716017370
   5.3852759894   19.7655686570   18.3716017370
   1.5386502539   21.7643340205   18.3716017370
  -2.3079754816   23.7630993840   18.3716017370
  -6.1546012171   25.7618647475   18.3716017370
  -10.0012269526   27.7606301109   18.3716017370
  -13.8478526880   29.7593954744   18.3716017370
  -17.6944784235   31.7581608379   18.3716017370
   43.6592020575   4.1085733098   18.3716017370
   39.8125763220   6.1073386733   18.3716017370
   35.9659505865   8.1061040368   18.3716017370
   32.1193248510   10.1048694003   18.3716017370
   28.2726991155   12.1036347637   18.3716017370
   24.4260733800   14.1024001272   18.3716017370
   20.5794476445   16.1011654907   18.3716017370
   16.7328219090   18.0999308542   18.3716017370
   12.8861961736   20.0986962176   18.3716017370
   9.0395704381   22.0974615811   18.3716017370
   5.1929447026   24.0962269446   18.3716017370
   1.3463189671   26.0949923080   18.3716017370
  -2.5003067684   28.0937576715   18.3716017370
  -6.3469325039   30.0925230350   18.3716017370
  -10.1935582394   32.0912883985   18.3716017370
  -14.0401839749   34.0900537619   18.3716017370
  -17.8868097104   36.0888191254   18.3716017370
  -21.7334354458   38.0875844889   18.3716017370
   43.4668707706   8.4392315974   18.3716017370
   39.6202450351   10.4379969608   18.3716017370
   35.7736192997   12.4367623243   18.3716017370
   31.9269935642   14.4355276878   18.3716017370
   28.0803678287   16.4342930513   18.3716017370
   24.2337420932   18.4330584147   18.3716017370
   20.3871163577   20.4318237782   18.3716017370
   16.5404906222   22.4305891417   18.3716017370
   12.6938648867   24.4293545051   18.3716017370
   8.8472391512   26.4281198686   18.3716017370
   5.0006134157   28.4268852321   18.3716017370
   1.1539876803   30.4256505956   18.3716017370
  -2.6926380552   32.4244159590   18.3716017370
  -6.5392637907   34.4231813225   18.3716017370
  -10.3858895262   36.4219466860   18.3716017370
  -14.2325152617   38.4207120494   18.3716017370
  -18.0791409972   40.4194774129   18.3716017370
   2.5003066880   0.1110425829   18.3716017370
   39.4279137483   14.7686552484   18.3716017370
   35.5812880128   16.7674206118   18.3716017370
   31.7346622773   18.7661859753   18.3716017370
   27.8880365419   20.7649513388   18.3716017370
   24.0414108064   22.7637167023   18.3716017370
   20.1947850709   24.7624820657   18.3716017370
   16.3481593354   26.7612474292   18.3716017370
   12.5015335999   28.7600127927   18.3716017370
   8.6549078644   30.7587781561   18.3716017370
   4.8082821289   32.7575435196   18.3716017370
   0.9616563934   34.7563088831   18.3716017370
  -2.8849693421   36.7550742466   18.3716017370
  -6.7315950775   38.7538396100   18.3716017370
  -10.5782208130   40.7526049735   18.3716017370
   10.0012268722   0.4441701435   18.3716017370
   35.3889567260   21.0980788994   18.3716017370
   31.5423309905   23.0968442628   18.3716017370
   27.6957052550   25.0956096263   18.3716017370
   23.8490795195   27.0943749898   18.3716017370
   20.0024537841   29.0931403532   18.3716017370
   16.1558280486   31.0919057167   18.3716017370
   12.3092023131   33.0906710802   18.3716017370
   8.4625765776   35.0894364437   18.3716017370
   4.6159508421   37.0882018071   18.3716017370
   0.7693251066   39.0869671706   18.3716017370
  -3.0773006289   41.0857325341   18.3716017370
   17.5021470563   0.7772977041   18.3716017370
   31.3499997037   27.4275025504   18.3716017370
   27.5033739682   29.4262679138   18.3716017370
   23.6567482327   31.4250332773   18.3716017370
   19.8101224972   33.4237986408   18.3716017370
   15.9634967617   35.4225640042   18.3716017370
   12.1168710263   37.4213293677   18.3716017370
   8.2702452908   39.4200947312   18.3716017370
   4.4236195553   41.4188600947   18.3716017370
   25.0030672405   1.1104252646   18.3716017370
   27.3110426814   33.7569262013   18.3716017370
   23.4644169459   35.7556915648   18.3716017370
   19.6177912104   37.7544569283   18.3716017370
   15.7711654749   39.7532222918   18.3716017370
   11.9245397394   41.7519876552   18.3716017370
   32.5039874246   1.4435528252   18.3716017370
   23.2720856591   40.0863498523   18.3716017370
   19.4254599236   42.0851152158   18.3716017370
   40.0049076088   1.7766803858   18.3716017370
   1.3463190479   2.1098079467   13.4771506650
   5.1929447834   4.1085733101   13.4771506650
   1.5386503347   6.4404662342   13.4771506650
  -2.1156441140   8.7723591582   13.4771506650
   12.6938649675   3.7754457496   13.4771506650
   9.0395705188   6.1073386736   13.4771506650
   5.3852760701   8.4392315977   13.4771506650
   1.7309816214   10.7711245217   13.4771506650
  -1.9233128273   13.1030174458   13.4771506650
  -5.5776072760   15.4349103698   13.4771506650
   20.1947851517   3.4423181890   13.4771506650
   16.5404907030   5.7742111130   13.4771506650
   12.8861962543   8.1061040371   13.4771506650
   9.2319018056   10.4379969611   13.4771506650
   5.5776073568   12.7698898852   13.4771506650
   1.9233129081   15.1017828092   13.4771506650
  -1.7309815406   17.4336757333   13.4771506650
  -5.3852759893   19.7655686573   13.4771506650
  -9.0395704380   22.0974615814   13.4771506650
   27.6957053359   3.1091906284   13.4771506650
   24.0414108871   5.4410835524   13.4771506650
   20.3871164384   7.7729764765   13.4771506650
   16.7328219897   10.1048694005   13.4771506650
   13.0785275410   12.4367623246   13.4771506650
   9.4242330923   14.7686552486   13.4771506650
   5.7699386436   17.1005481727   13.4771506650
   2.1156441948   19.4324410967   13.4771506650
  -1.5386502539   21.7643340208   13.4771506650
  -5.1929447026   24.0962269448   13.4771506650
  -8.8472391513   26.4281198689   13.4771506650
  -12.5015336000   28.7600127929   13.4771506650
   35.1966255200   2.7760630678   13.4771506650
   31.5423310713   5.1079559919   13.4771506650
   27.8880366226   7.4398489159   13.4771506650
   24.2337421739   9.7717418400   13.4771506650
   20.5794477252   12.1036347640   13.4771506650
   16.9251532764   14.4355276881   13.4771506650
   13.2708588277   16.7674206121   13.4771506650
   9.6165643790   19.0993135362   13.4771506650
   5.9622699303   21.4312064602   13.4771506650
   2.3079754816   23.7630993843   13.4771506650
  -1.3463189672   26.0949923083   13.4771506650
  -5.0006134159   28.4268852324   13.4771506650
  -8.6549078646   30.7587781564   13.4771506650
  -12.3092023133   33.0906710805   13.4771506650
  -15.9634967620   35.4225640045   13.4771506650
   42.6975457042   2.4429355072   13.4771506650
   39.0432512555   4.7748284313   13.4771506650
   35.3889568067   7.1067213553   13.4771506650
   31.7346623580   9.4386142794   13.4771506650
   28.0803679093   11.7705072034   13.4771506650
   24.4260734606   14.1024001275   13.4771506650
   20.7717790119   16.4342930515   13.4771506650
   17.1174845632   18.7661859756   13.4771506650
   13.4631901144   21.0980788996   13.4771506650
   9.8088956657   23.4299718237   13.4771506650
   6.1546012170   25.7618647477   13.4771506650
   2.5003067683   28.0937576718   13.4771506650
  -1.1539876804   30.4256505958   13.4771506650
  -4.8082821292   32.7575435199   13.4771506650
  -8.4625765779   35.0894364439   13.4771506650
  -12.1168710266   37.4213293680   13.4771506650
  -15.7711654753   39.7532222920   13.4771506650
  -19.4254599240   42.0851152161   13.4771506650
  -2.3079754008   4.4417008707   13.4771506650
   42.8898769909   6.7735937948   13.4771506650
   39.2355825422   9.1054867188   13.4771506650
   35.5812880935   11.4373796429   13.4771506650
   31.9269936448   13.7692725669   13.4771506650
   28.2726991960   16.1011654910   13.4771506650
   24.6184047473   18.4330584150   13.4771506650
   20.9641102986   20.7649513391   13.4771506650
   17.3098158499   23.0968442631   13.4771506650
   13.6555214012   25.4287371872   13.4771506650
   10.0012269524   27.7606301112   13.4771506650
   6.3469325037   30.0925230353   13.4771506650
   2.6926380550   32.4244159593   13.4771506650
  -0.9616563937   34.7563088834   13.4771506650
  -4.6159508424   37.0882018074   13.4771506650
  -8.2702452912   39.4200947315   13.4771506650
  -11.9245397399   41.7519876555   13.4771506650
   8.8472392321   1.7766803861   13.4771506650
  -5.7699385628   11.1042520823   13.4771506650
   39.4279138289   13.4361450063   13.4771506650
   35.7736193802   15.7680379304   13.4771506650
   32.1193249315   18.0999308544   13.4771506650
   28.4650304828   20.4318237785   13.4771506650
   24.8107360340   22.7637167025   13.4771506650
   21.1564415853   25.0956096266   13.4771506650
   17.5021471366   27.4275025506   13.4771506650
   13.8478526879   29.7593954747   13.4771506650
   10.1935582392   32.0912883987   13.4771506650
   6.5392637904   34.4231813228   13.4771506650
   2.8849693417   36.7550742468   13.4771506650
  -0.7693251070   39.0869671709   13.4771506650
  -4.4236195557   41.4188600949   13.4771506650
   16.3481594163   1.4435528255   13.4771506650
  -9.2319017248   17.7668032939   13.4771506650
   35.9659506669   20.0986962179   13.4771506650
   32.3116562182   22.4305891420   13.4771506650
   28.6573617695   24.7624820660   13.4771506650
   25.0030673208   27.0943749901   13.4771506650
   21.3487728720   29.4262679141   13.4771506650
   17.6944784233   31.7581608382   13.4771506650
   14.0401839746   34.0900537622   13.4771506650
   10.3858895259   36.4219466863   13.4771506650
   6.7315950772   38.7538396103   13.4771506650
   3.0773006284   41.0857325344   13.4771506650
   23.8490796004   1.1104252649   13.4771506650
  -12.6938648868   24.4293545054   13.4771506650
   32.5039875049   26.7612474295   13.4771506650
   28.8496930562   29.0931403535   13.4771506650
   25.1953986075   31.4250332776   13.4771506650
   21.5411041588   33.7569262016   13.4771506650
   17.8868097100   36.0888191257   13.4771506650
   14.2325152613   38.4207120497   13.4771506650
   10.5782208126   40.7526049738   13.4771506650
   31.3499997846   0.7772977043   13.4771506650
  -16.1558280488   31.0919057170   13.4771506650
   29.0420243429   33.4237986410   13.4771506650
   25.3877298942   35.7556915651   13.4771506650
   21.7334354455   38.0875844891   13.4771506650
   18.0791409968   40.4194774132   13.4771506650
   38.8509199687   0.4441701438   13.4771506650
  -19.6177912108   37.7544569286   13.4771506650
   25.5800611809   40.0863498526   13.4771506650
   46.3518401529   0.1110425832   13.4771506650
   0.0000000000   0.0000000000   16.6512475980
   7.5009201842   0.3331275606   16.6512475980
   3.6542944487   2.3318929241   16.6512475980
  -0.1923312868   4.3306582875   16.6512475980
   15.0018403683   0.6662551212   16.6512475980
   11.1552146328   2.6650204846   16.6512475980
   7.3085888973   4.6637858481   16.6512475980
   3.4619631618   6.6625512116   16.6512475980
  -0.3846625736   8.6613165750   16.6512475980
  -4.2312883091   10.6600819385   16.6512475980
   22.5027605525   0.9993826817   16.6512475980
   18.6561348170   2.9981480452   16.6512475980
   14.8095090815   4.9969134087   16.6512475980
   10.9628833460   6.9956787722   16.6512475980
   7.1162576105   8.9944441356   16.6512475980
   3.2696318750   10.9932094991   16.6512475980
  -0.5769938605   12.9919748626   16.6512475980
  -4.4236195960   14.9907402260   16.6512475980
  -8.2702453314   16.9895055895   16.6512475980
   30.0036807366   1.3325102423   16.6512475980
   26.1570550011   3.3312756058   16.6512475980
   22.3104292656   5.3300409693   16.6512475980
   18.4638035301   7.3288063327   16.6512475980
   14.6171777947   9.3275716962   16.6512475980
   10.7705520592   11.3263370597   16.6512475980
   6.9239263237   13.3251024231   16.6512475980
   3.0773005882   15.3238677866   16.6512475980
  -0.7693251473   17.3226331501   16.6512475980
  -4.6159508828   19.3213985136   16.6512475980
  -8.4625766183   21.3201638770   16.6512475980
  -12.3092023538   23.3189292405   16.6512475980
   37.5046009208   1.6656378029   16.6512475980
   33.6579751853   3.6644031664   16.6512475980
   29.8113494498   5.6631685298   16.6512475980
   25.9647237143   7.6619338933   16.6512475980
   22.1180979788   9.6606992568   16.6512475980
   18.2714722433   11.6594646203   16.6512475980
   14.4248465078   13.6582299837   16.6512475980
   10.5782207723   15.6569953472   16.6512475980
   6.7315950369   17.6557607107   16.6512475980
   2.8849693014   19.6545260741   16.6512475980
  -0.9616564341   21.6532914376   16.6512475980
  -4.8082821696   23.6520568011   16.6512475980
  -8.6549079051   25.6508221646   16.6512475980
  -12.5015336406   27.6495875280   16.6512475980
  -16.3481593761   29.6483528915   16.6512475980
   45.0055211049   1.9987653635   16.6512475980
   41.1588953694   3.9975307269   16.6512475980
   37.3122696339   5.9962960904   16.6512475980
   33.4656438984   7.9950614539   16.6512475980
   29.6190181630   9.9938268174   16.6512475980
   25.7723924275   11.9925921808   16.6512475980
   21.9257666920   13.9913575443   16.6512475980
   18.0791409565   15.9901229078   16.6512475980
   14.2325152210   17.9888882712   16.6512475980
   10.3858894855   19.9876536347   16.6512475980
   6.5392637500   21.9864189982   16.6512475980
   2.6926380145   23.9851843617   16.6512475980
  -1.1539877209   25.9839497251   16.6512475980
  -5.0006134564   27.9827150886   16.6512475980
  -8.8472391919   29.9814804521   16.6512475980
  -12.6938649274   31.9802458155   16.6512475980
  -16.5404906629   33.9790111790   16.6512475980
  -20.3871163984   35.9777765425   16.6512475980
   44.8131898181   6.3294236510   16.6512475980
   40.9665640826   8.3281890145   16.6512475980
   37.1199383471   10.3269543779   16.6512475980
   33.2733126116   12.3257197414   16.6512475980
   29.4266868761   14.3244851049   16.6512475980
   25.5800611406   16.3232504684   16.6512475980
   21.7334354052   18.3220158318   16.6512475980
   17.8868096697   20.3207811953   16.6512475980
   14.0401839342   22.3195465588   16.6512475980
   10.1935581987   24.3183119222   16.6512475980
   6.3469324632   26.3170772857   16.6512475980
   2.5003067277   28.3158426492   16.6512475980
  -1.3463190078   30.3146080127   16.6512475980
  -5.1929447433   32.3133733761   16.6512475980
  -9.0395704787   34.3121387396   16.6512475980
  -12.8861962142   36.3109041031   16.6512475980
  -16.7328219497   38.3096694665   16.6512475980
  -20.5794476852   40.3084348300   16.6512475980
   40.7742327958   12.6588473020   16.6512475980
   36.9276070603   14.6576126655   16.6512475980
   33.0809813248   16.6563780289   16.6512475980
   29.2343555893   18.6551433924   16.6512475980
   25.3877298538   20.6539087559   16.6512475980
   21.5411041183   22.6526741193   16.6512475980
   17.6944783828   24.6514394828   16.6512475980
   13.8478526474   26.6502048463   16.6512475980
   10.0012269119   28.6489702098   16.6512475980
   6.1546011764   30.6477355732   16.6512475980
   2.3079754409   32.6465009367   16.6512475980
  -1.5386502946   34.6452663002   16.6512475980
  -5.3852760301   36.6440316636   16.6512475980
  -9.2319017656   38.6427970271   16.6512475980
  -13.0785275011   40.6415623906   16.6512475980
   36.7352757735   18.9882709530   16.6512475980
   32.8886500380   20.9870363165   16.6512475980
   29.0420243025   22.9858016799   16.6512475980
   25.1953985670   24.9845670434   16.6512475980
   21.3487728315   26.9833324069   16.6512475980
   17.5021470960   28.9820977703   16.6512475980
   13.6555213605   30.9808631338   16.6512475980
   9.8088956250   32.9796284973   16.6512475980
   5.9622698896   34.9783938608   16.6512475980
   2.1156441541   36.9771592242   16.6512475980
  -1.7309815814   38.9759245877   16.6512475980
  -5.5776073169   40.9746899512   16.6512475980
   32.6963187511   25.3176946040   16.6512475980
   28.8496930157   27.3164599674   16.6512475980
   25.0030672802   29.3152253309   16.6512475980
   21.1564415447   31.3139906944   16.6512475980
   17.3098158092   33.3127560579   16.6512475980
   13.4631900737   35.3115214213   16.6512475980
   9.6165643382   37.3102867848   16.6512475980
   5.7699386027   39.3090521483   16.6512475980
   1.9233128672   41.3078175117   16.6512475980
   28.6573617288   31.6471182550   16.6512475980
   24.8107359933   33.6458836184   16.6512475980
   20.9641102579   35.6446489819   16.6512475980
   17.1174845224   37.6434143454   16.6512475980
   13.2708587869   39.6421797089   16.6512475980
   9.4242330514   41.6409450723   16.6512475980
   24.6184047065   37.9765419060   16.6512475980
   20.7717789710   39.9753072694   16.6512475980
   16.9251532355   41.9740726329   16.6512475980
   0.0000000000   0.0000000000   9.6512475980
   3.8466257354   1.9987653635   9.6512475980
   0.1923312867   4.3306582875   9.6512475980
  -3.4619631620   6.6625512116   9.6512475980
   11.3475459196   1.6656378029   9.6512475980
   7.6932514709   3.9975307269   9.6512475980
   4.0389570222   6.3294236510   9.6512475980
   0.3846625734   8.6613165750   9.6512475980
  -3.2696318753   10.9932094991   9.6512475980
  -6.9239263240   13.3251024231   9.6512475980
   18.8484661038   1.3325102423   9.6512475980
   15.1941716550   3.6644031664   9.6512475980
   11.5398772063   5.9962960904   9.6512475980
   7.8855827576   8.3281890145   9.6512475980
   4.2312883089   10.6600819385   9.6512475980
   0.5769938602   12.9919748626   9.6512475980
  -3.0773005886   15.3238677866   9.6512475980
  -6.7315950373   17.6557607107   9.6512475980
  -10.3858894860   19.9876536347   9.6512475980
   26.3493862879   0.9993826817   9.6512475980
   22.6950918392   3.3312756058   9.6512475980
   19.0407973905   5.6631685298   9.6512475980
   15.3865029418   7.9950614539   9.6512475980
   11.7322084930   10.3269543779   9.6512475980
   8.0779140443   12.6588473020   9.6512475980
   4.4236195956   14.9907402260   9.6512475980
   0.7693251469   17.3226331501   9.6512475980
  -2.8849693018   19.6545260741   9.6512475980
  -6.5392637505   21.9864189982   9.6512475980
  -10.1935581993   24.3183119222   9.6512475980
  -13.8478526480   26.6502048463   9.6512475980
   33.8503064721   0.6662551212   9.6512475980
   30.1960120234   2.9981480452   9.6512475980
   26.5417175746   5.3300409693   9.6512475980
   22.8874231259   7.6619338933   9.6512475980
   19.2331286772   9.9938268174   9.6512475980
   15.5788342285   12.3257197414   9.6512475980
   11.9245397798   14.6576126655   9.6512475980
   8.2702453310   16.9895055895   9.6512475980
   4.6159508823   19.3213985136   9.6512475980
   0.9616564336   21.6532914376   9.6512475980
  -2.6926380151   23.9851843617   9.6512475980
  -6.3469324638   26.3170772857   9.6512475980
  -10.0012269125   28.6489702098   9.6512475980
  -13.6555213613   30.9808631338   9.6512475980
  -17.3098158100   33.3127560579   9.6512475980
   41.3512266562   0.3331275606   9.6512475980
   37.6969322075   2.6650204846   9.6512475980
   34.0426377588   4.9969134087   9.6512475980
   30.3883433101   7.3288063327   9.6512475980
   26.7340488614   9.6606992568   9.6512475980
   23.0797544126   11.9925921808   9.6512475980
   19.4254599639   14.3244851049   9.6512475980
   15.7711655152   16.6563780289   9.6512475980
   12.1168710665   18.9882709530   9.6512475980
   8.4625766178   21.3201638770   9.6512475980
   4.8082821691   23.6520568011   9.6512475980
   1.1539877203   25.9839497251   9.6512475980
  -2.5003067284   28.3158426492   9.6512475980
  -6.1546011771   30.6477355732   9.6512475980
  -9.8088956258   32.9796284973   9.6512475980
  -13.4631900745   35.3115214213   9.6512475980
  -17.1174845233   37.6434143454   9.6512475980
  -20.7717789720   39.9753072694   9.6512475980
   45.1978523917   2.3318929241   9.6512475980
   41.5435579430   4.6637858481   9.6512475980
   37.8892634942   6.9956787722   9.6512475980
   34.2349690455   9.3275716962   9.6512475980
   30.5806745968   11.6594646203   9.6512475980
   26.9263801481   13.9913575443   9.6512475980
   23.2720856994   16.3232504684   9.6512475980
   19.6177912506   18.6551433924   9.6512475980
   15.9634968019   20.9870363165   9.6512475980
   12.3092023532   23.3189292405   9.6512475980
   8.6549079045   25.6508221646   9.6512475980
   5.0006134558   27.9827150886   9.6512475980
   1.3463190071   30.3146080127   9.6512475980
  -2.3079754417   32.6465009367   9.6512475980
  -5.9622698904   34.9783938608   9.6512475980
  -9.6165643391   37.3102867848   9.6512475980
  -13.2708587878   39.6421797089   9.6512475980
  -16.9251532365   41.9740726329   9.6512475980
   41.7358892297   8.9944441356   9.6512475980
   38.0815947810   11.3263370597   9.6512475980
   34.4273003322   13.6582299837   9.6512475980
   30.7730058835   15.9901229078   9.6512475980
   27.1187114348   18.3220158318   9.6512475980
   23.4644169861   20.6539087559   9.6512475980
   19.8101225374   22.9858016799   9.6512475980
   16.1558280887   25.3176946040   9.6512475980
   12.5015336399   27.6495875280   9.6512475980
   8.8472391912   29.9814804521   9.6512475980
   5.1929447425   32.3133733761   9.6512475980
   1.5386502938   34.6452663002   9.6512475980
  -2.1156441549   36.9771592242   9.6512475980
  -5.7699386037   39.3090521483   9.6512475980
  -9.4242330524   41.6409450723   9.6512475980
   38.2739260677   15.6569953472   9.6512475980
   34.6196316190   17.9888882712   9.6512475980
   30.9653371702   20.3207811953   9.6512475980
   27.3110427215   22.6526741193   9.6512475980
   23.6567482728   24.9845670434   9.6512475980
   20.0024538241   27.3164599674   9.6512475980
   16.3481593754   29.6483528915   9.6512475980
   12.6938649267   31.9802458155   9.6512475980
   9.0395704779   34.3121387396   9.6512475980
   5.3852760292   36.6440316636   9.6512475980
   1.7309815805   38.9759245877   9.6512475980
  -1.9233128682   41.3078175117   9.6512475980
   34.8119629057   22.3195465588   9.6512475980
   31.1576684570   24.6514394828   9.6512475980
   27.5033740083   26.9833324069   9.6512475980
   23.8490795595   29.3152253309   9.6512475980
   20.1947851108   31.6471182550   9.6512475980
   16.5404906621   33.9790111790   9.6512475980
   12.8861962134   36.3109041031   9.6512475980
   9.2319017647   38.6427970271   9.6512475980
   5.5776073159   40.9746899512   9.6512475980
   31.3499997437   28.9820977703   9.6512475980
   27.6957052950   31.3139906944   9.6512475980
   24.0414108463   33.6458836184   9.6512475980
   20.3871163975   35.9777765425   9.6512475980
   16.7328219488   38.3096694665   9.6512475980
   13.0785275001   40.6415623906   9.6512475980
   27.8880365817   35.6446489819   9.6512475980
   24.2337421330   37.9765419060   9.6512475980
   20.5794476843   40.3084348300   9.6512475980
   1.1539877554   2.2208504702   20.4771506650
   8.6549079396   2.5539780308   20.4771506650
   4.8082822041   4.5527433942   20.4771506650
   0.9616564686   6.5515087577   20.4771506650
   16.1558281237   2.8871055914   20.4771506650
   12.3092023882   4.8858709548   20.4771506650
   8.4625766528   6.8846363183   20.4771506650
   4.6159509173   8.8834016818   20.4771506650
   0.7693251818   10.8821670452   20.4771506650
  -3.0773005537   12.8809324087   20.4771506650
   23.6567483079   3.2202331519   20.4771506650
   19.8101225724   5.2189985154   20.4771506650
   15.9634968369   7.2177638789   20.4771506650
   12.1168711014   9.2165292423   20.4771506650
   8.2702453659   11.2152946058   20.4771506650
   4.4236196304   13.2140599693   20.4771506650
   0.5769938950   15.2128253328   20.4771506650
  -3.2696318405   17.2115906962   20.4771506650
  -7.1162575760   19.2103560597   20.4771506650
   31.1576684920   3.5533607125   20.4771506650
   27.3110427565   5.5521260760   20.4771506650
   23.4644170211   7.5508914395   20.4771506650
   19.6177912856   9.5496568029   20.4771506650
   15.7711655501   11.5484221664   20.4771506650
   11.9245398146   13.5471875299   20.4771506650
   8.0779140791   15.5459528933   20.4771506650
   4.2312883436   17.5447182568   20.4771506650
   0.3846626081   19.5434836203   20.4771506650
  -3.4619631274   21.5422489838   20.4771506650
  -7.3085888628   23.5410143472   20.4771506650
  -11.1552145983   25.5397797107   20.4771506650
   38.6585886762   3.8864882731   20.4771506650
   34.8119629407   5.8852536366   20.4771506650
   30.9653372052   7.8840190000   20.4771506650
   27.1187114697   9.8827843635   20.4771506650
   23.2720857342   11.8815497270   20.4771506650
   19.4254599987   13.8803150904   20.4771506650
   15.5788342633   15.8790804539   20.4771506650
   11.7322085278   17.8778458174   20.4771506650
   7.8855827923   19.8766111809   20.4771506650
   4.0389570568   21.8753765443   20.4771506650
   0.1923313213   23.8741419078   20.4771506650
  -3.6542944142   25.8729072713   20.4771506650
  -7.5009201497   27.8716726348   20.4771506650
  -11.3475458852   29.8704379982   20.4771506650
  -15.1941716206   31.8692033617   20.4771506650
   46.1595088603   4.2196158337   20.4771506650
   42.3128831249   6.2183811971   20.4771506650
   38.4662573894   8.2171465606   20.4771506650
   34.6196316539   10.2159119241   20.4771506650
   30.7730059184   12.2146772876   20.4771506650
   26.9263801829   14.2134426510   20.4771506650
   23.0797544474   16.2122080145   20.4771506650
   19.2331287119   18.2109733780   20.4771506650
   15.3865029764   20.2097387414   20.4771506650
   11.5398772409   22.2085041049   20.4771506650
   7.6932515055   24.2072694684   20.4771506650
   3.8466257700   26.2060348319   20.4771506650
   0.0000000345   28.2048001953   20.4771506650
  -3.8466257010   30.2035655588   20.4771506650
  -7.6932514365   32.2023309223   20.4771506650
  -11.5398771720   34.2010962857   20.4771506650
  -15.3865029075   36.1998616492   20.4771506650
  -19.2331286430   38.1986270127   20.4771506650
  -2.8849692669   8.5502741212   20.4771506650
   42.1205518380   10.5490394847   20.4771506650
   38.2739261025   12.5478048481   20.4771506650
   34.4273003671   14.5465702116   20.4771506650
   30.5806746316   16.5453355751   20.4771506650
   26.7340488961   18.5441009386   20.4771506650
   22.8874231606   20.5428663020   20.4771506650
   19.0407974251   22.5416316655   20.4771506650
   15.1941716896   24.5403970290   20.4771506650
   11.3475459541   26.5391623924   20.4771506650
   7.5009202186   28.5379277559   20.4771506650
   3.6542944831   30.5366931194   20.4771506650
  -0.1923312523   32.5354584829   20.4771506650
  -4.0389569878   34.5342238463   20.4771506650
  -7.8855827233   36.5329892098   20.4771506650
  -11.7322084588   38.5317545733   20.4771506650
  -15.5788341943   40.5305199367   20.4771506650
   5.0006134909   0.2220851067   20.4771506650
  -6.9239262892   14.8796977722   20.4771506650
   38.0815948157   16.8784631357   20.4771506650
   34.2349690802   18.8772284991   20.4771506650
   30.3883433447   20.8759938626   20.4771506650
   26.5417176093   22.8747592261   20.4771506650
   22.6950918738   24.8735245895   20.4771506650
   18.8484661383   26.8722899530   20.4771506650
   15.0018404028   28.8710553165   20.4771506650
   11.1552146673   30.8698206800   20.4771506650
   7.3085889318   32.8685860434   20.4771506650
   3.4619631963   34.8673514069   20.4771506650
  -0.3846625392   36.8661167704   20.4771506650
  -4.2312882747   38.8648821338   20.4771506650
  -8.0779140101   40.8636474973   20.4771506650
   12.5015336751   0.5552126673   20.4771506650
  -10.9628833115   21.2091214232   20.4771506650
   34.0426377934   23.2078867867   20.4771506650
   30.1960120579   25.2066521501   20.4771506650
   26.3493863224   27.2054175136   20.4771506650
   22.5027605869   29.2041828771   20.4771506650
   18.6561348514   31.2029482405   20.4771506650
   14.8095091160   33.2017136040   20.4771506650
   10.9628833805   35.2004789675   20.4771506650
   7.1162576450   37.1992443310   20.4771506650
   3.2696319095   39.1980096944   20.4771506650
  -0.5769938260   41.1967750579   20.4771506650
   20.0024538592   0.8883402279   20.4771506650
  -15.0018403338   27.5385450742   20.4771506650
   30.0036807711   29.5373104376   20.4771506650
   26.1570550356   31.5360758011   20.4771506650
   22.3104293001   33.5348411646   20.4771506650
   18.4638035646   35.5336065281   20.4771506650
   14.6171778291   37.5323718915   20.4771506650
   10.7705520936   39.5311372550   20.4771506650
   6.9239263582   41.5299026185   20.4771506650
   27.5033740434   1.2214677885   20.4771506650
  -19.0407973561   33.8679687252   20.4771506650
   25.9647237488   35.8667340886   20.4771506650
   22.1180980133   37.8654994521   20.4771506650
   18.2714722778   39.8642648156   20.4771506650
   14.4248465423   41.8630301791   20.4771506650
   35.0042942275   1.5545953490   20.4771506650
  -23.0797543784   40.1973923762   20.4771506650
   21.9257667265   42.1961577396   20.4771506650
   42.5052144117   1.8877229096   20.4771506650
