Pt Se
 1.0000000000000000
    28.9735371378000011    0.0000000000000000    0.0000000000000000
   -14.4867685689000005   25.0918191989999997    0.0000000000000000
     0.0000000000000000    0.0000000000000000   30.0000000000000000
 Pt  Se 
 122 244
Direct
  0.0000000000000000  0.0000000000000000  0.3500000000000000
  0.1475409836081463  0.0655737704927180  0.3500000000000000
  0.0819672131138815  0.1475409836066227  0.3500000000000000
  0.0163934426230681  0.2295081967205275  0.3500000000000000
  0.3606557377051134  0.0491803278675458  0.3500000000000000
  0.2950819672128412  0.1311475409854359  0.3500000000000000
  0.2295081967220278  0.2131147540993407  0.3500000000000000
  0.1639344262312143  0.2950819672132454  0.3500000000000000
  0.0983606557369495  0.3770491803271502  0.3500000000000000
  0.0327868852461361  0.4590163934410550  0.3500000000000000
  0.5737704918040731  0.0327868852463590  0.3500000000000000
  0.5081967213098083  0.1147540983602637  0.3500000000000000
  0.4426229508189949  0.1967213114741685  0.3500000000000000
  0.3770491803301741  0.2786885245920586  0.3500000000000000
  0.3114754098359093  0.3606557377059634  0.3500000000000000
  0.2459016393450958  0.4426229508198682  0.3500000000000000
  0.1803278688508310  0.5245901639337729  0.3500000000000000
  0.1147540983600176  0.6065573770476776  0.3500000000000000
  0.0491803278711969  0.6885245901655679  0.3500000000000000
  0.7868852459010401  0.0163934426211868  0.3500000000000000
  0.7213114754122195  0.0983606557390769  0.3500000000000000
  0.6557377049179546  0.1803278688529817  0.3500000000000000
  0.5901639344271412  0.2622950819668864  0.3500000000000000
  0.5245901639328764  0.3442622950807913  0.3500000000000000
  0.4590163934440556  0.4262295081986814  0.3500000000000000
  0.3934426229497907  0.5081967213125861  0.3500000000000000
  0.3278688524589773  0.5901639344264908  0.3500000000000000
  0.2622950819681639  0.6721311475403957  0.3500000000000000
  0.1967213114738991  0.7540983606543005  0.3500000000000000
  0.1311475409850783  0.8360655737721906  0.3500000000000000
  0.0655737704908135  0.9180327868860954  0.3500000000000000
  0.9344262295091865  0.0819672131139048  0.3500000000000000
  0.8688524590149218  0.1639344262278095  0.3500000000000000
  0.8032786885261010  0.2459016393456997  0.3500000000000000
  0.7377049180318361  0.3278688524596044  0.3500000000000000
  0.6721311475410227  0.4098360655735092  0.3500000000000000
  0.6065573770502093  0.4918032786874140  0.3500000000000000
  0.5409836065559444  0.5737704918013187  0.3500000000000000
  0.4754098360671236  0.6557377049192088  0.3500000000000000
  0.4098360655728588  0.7377049180331137  0.3500000000000000
  0.3442622950820454  0.8196721311470184  0.3500000000000000
  0.2786885245877805  0.9016393442609232  0.3500000000000000
  0.2131147540989598  0.9836065573788133  0.3500000000000000
  0.9508196721288030  0.3114754098344322  0.3500000000000000
  0.8852459016399825  0.3934426229523224  0.3500000000000000
  0.8196721311491690  0.4754098360662272  0.3500000000000000
  0.7540983606549042  0.5573770491801319  0.3500000000000000
  0.6885245901640906  0.6393442622940366  0.3500000000000000
  0.6229508196698259  0.7213114754079415  0.3500000000000000
  0.5573770491810052  0.8032786885258316  0.3500000000000000
  0.4918032786901917  0.8852459016397364  0.3500000000000000
  0.4262295081959269  0.9672131147536411  0.3500000000000000
  0.9672131147538640  0.5409836065589451  0.3500000000000000
  0.9016393442630504  0.6229508196728498  0.3500000000000000
  0.8360655737687855  0.7049180327867546  0.3500000000000000
  0.7704918032779722  0.7868852459006594  0.3500000000000000
  0.7049180327871588  0.8688524590145642  0.3500000000000000
  0.6393442622948867  0.9508196721324543  0.3500000000000000
  0.9836065573769319  0.7704918032794726  0.3500000000000000
  0.9180327868861186  0.8524590163933774  0.3500000000000000
  0.8524590163918537  0.9344262295072822  0.3500000000000000
  0.0000000000000000  0.0000000000000000  0.6500000000000000
  0.2295081967201466  0.0163934426211868  0.6500000000000000
  0.1475409836047182  0.0819672131139048  0.6500000000000000
  0.0655737704927412  0.1475409836066227  0.6500000000000000
  0.4590163934422858  0.0327868852463590  0.6500000000000000
  0.3770491803268574  0.0983606557390769  0.6500000000000000
  0.2950819672128878  0.1639344262278095  0.6500000000000000
  0.2131147540974594  0.2295081967205275  0.6500000000000000
  0.1311475409820310  0.2950819672132454  0.6500000000000000
  0.0491803278700541  0.3606557377059634  0.6500000000000000
  0.6885245901624323  0.0491803278675458  0.6500000000000000
  0.6065573770504553  0.1147540983602637  0.6500000000000000
  0.5245901639350271  0.1803278688529817  0.6500000000000000
  0.4426229508195986  0.2459016393456997  0.6500000000000000
  0.3606557377056290  0.3114754098344322  0.6500000000000000
  0.2786885245902007  0.3770491803271502  0.6500000000000000
  0.1967213114747723  0.4426229508198682  0.6500000000000000
  0.1147540983627953  0.5081967213125861  0.6500000000000000
  0.0327868852453743  0.5737704918013187  0.6500000000000000
  0.9180327868845716  0.0655737704927180  0.6500000000000000
  0.8360655737725947  0.1311475409854359  0.6500000000000000
  0.7540983606551735  0.1967213114741685  0.6500000000000000
  0.6721311475397452  0.2622950819668864  0.6500000000000000
  0.5901639344277683  0.3278688524596044  0.6500000000000000
  0.5081967213123399  0.3934426229523224  0.6500000000000000
  0.4262295081949189  0.4590163934410550  0.6500000000000000
  0.3442622950829419  0.5245901639337729  0.6500000000000000
  0.2622950819675136  0.5901639344264908  0.6500000000000000
  0.1803278688520852  0.6557377049192088  0.6500000000000000
  0.0983606557381156  0.7213114754079415  0.6500000000000000
  0.0163934426226872  0.7868852459006594  0.6500000000000000
  0.9836065573773128  0.2131147540993407  0.6500000000000000
  0.9016393442618845  0.2786885245920586  0.6500000000000000
  0.8196721311479148  0.3442622950807913  0.6500000000000000
  0.7377049180324865  0.4098360655735092  0.6500000000000000
  0.6557377049170581  0.4754098360662272  0.6500000000000000
  0.5737704918050811  0.5409836065589451  0.6500000000000000
  0.4918032786876601  0.6065573770476776  0.6500000000000000
  0.4098360655722317  0.6721311475403957  0.6500000000000000
  0.3278688524602548  0.7377049180331137  0.6500000000000000
  0.2459016393448265  0.8032786885258316  0.6500000000000000
  0.1639344262274054  0.8688524590145642  0.6500000000000000
  0.0819672131154284  0.9344262295072822  0.6500000000000000
  0.9672131147546258  0.4262295081986814  0.6500000000000000
  0.8852459016372047  0.4918032786874140  0.6500000000000000
  0.8032786885252277  0.5573770491801319  0.6500000000000000
  0.7213114754097993  0.6229508196728498  0.6500000000000000
  0.6393442622943710  0.6885245901655679  0.6500000000000000
  0.5573770491804013  0.7540983606543005  0.6500000000000000
  0.4754098360649730  0.8196721311470184  0.6500000000000000
  0.3934426229495446  0.8852459016397364  0.6500000000000000
  0.3114754098375677  0.9508196721324543  0.6500000000000000
  0.9508196721299459  0.6393442622940366  0.6500000000000000
  0.8688524590179690  0.7049180327867546  0.6500000000000000
  0.7868852459025406  0.7704918032794726  0.6500000000000000
  0.7049180327871123  0.8360655737721906  0.6500000000000000
  0.6229508196731427  0.9016393442609232  0.6500000000000000
  0.5409836065577143  0.9672131147536411  0.6500000000000000
  0.9344262295072588  0.8524590163933774  0.6500000000000000
  0.8524590163952818  0.9180327868860954  0.6500000000000000
  0.7704918032798536  0.9836065573788133  0.6500000000000000
  0.0765027322429769  0.0710382513664469  0.3062741408533334
  0.0054644808743560  0.0765027322401758  0.3937258591466666
  0.2240437158476718  0.1366120218591649  0.3062741408533334
  0.1530054644790509  0.1420765027328938  0.3937258591466666
  0.1584699453568583  0.2185792349730696  0.3062741408533334
  0.0874316939882375  0.2240437158467986  0.3937258591466666
  0.0928961748625935  0.3005464480869744  0.3062741408533334
  0.0218579234939726  0.3060109289607033  0.3937258591466666
  0.4371584699446389  0.1202185792339927  0.3062741408533334
  0.3661202185760180  0.1256830601077216  0.3937258591466666
  0.3715846994538254  0.2021857923478974  0.3062741408533334
  0.3005464480871973  0.2076502732256117  0.3937258591466666
  0.3060109289650046  0.2841530054657875  0.3062741408533334
  0.2349726775963838  0.2896174863395165  0.3937258591466666
  0.2404371584707398  0.3661202185796923  0.3062741408533334
  0.1693989071021190  0.3715846994534213  0.3937258591466666
  0.1748633879799264  0.4480874316935971  0.3062741408533334
  0.1038251366113055  0.4535519125673260  0.3937258591466666
  0.1092896174856616  0.5300546448075019  0.3062741408533334
  0.0382513661170407  0.5355191256812308  0.3937258591466666
  0.6502732240435987  0.1038251366128059  0.3062741408533334
  0.5792349726749777  0.1092896174865348  0.3937258591466666
  0.5846994535527853  0.1857923497267106  0.3062741408533334
  0.5136612021841643  0.1912568306004396  0.3937258591466666
  0.5191256830619718  0.2677595628406154  0.3062741408533334
  0.4480874316933509  0.2732240437143443  0.3937258591466666
  0.4535519125677069  0.3497267759545202  0.3062741408533334
  0.3825136612010787  0.3551912568322345  0.3937258591466666
  0.3879781420788862  0.4316939890724103  0.3062741408533334
  0.3169398907102653  0.4371584699461392  0.3937258591466666
  0.3224043715846213  0.5136612021863151  0.3062741408533334
  0.2513661202160004  0.5191256830600439  0.3937258591466666
  0.2568306010938079  0.5956284153002198  0.3062741408533334
  0.1857923497251870  0.6010928961739488  0.3937258591466666
  0.1912568306029945  0.6775956284141246  0.3062741408533334
  0.1202185792343736  0.6830601092878535  0.3937258591466666
  0.1256830601087296  0.7595628415280293  0.3062741408533334
  0.0546448087421015  0.7650273224057437  0.3937258591466666
  0.8633879781440170  0.0874316939876337  0.3062741408533334
  0.7923497267773889  0.0928961748653480  0.3937258591466666
  0.7978142076517450  0.1693989071055238  0.3062741408533334
  0.7267759562831241  0.1748633879792528  0.3937258591466666
  0.7322404371609315  0.2513661202194286  0.3062741408533334
  0.6612021857923107  0.2568306010931575  0.3937258591466666
  0.6666666666666666  0.3333333333333334  0.3062741408533334
  0.5956284152980459  0.3387978142070623  0.3937258591466666
  0.6010928961758532  0.4153005464472381  0.3062741408533334
  0.5300546448072323  0.4207650273209670  0.3937258591466666
  0.5355191256850398  0.4972677595611429  0.3062741408533334
  0.4644808743149602  0.5027322404388571  0.3937258591466666
  0.4699453551927676  0.5792349726790330  0.3062741408533334
  0.3989071038241468  0.5846994535527620  0.3937258591466666
  0.4043715847019542  0.6612021857929378  0.3062741408533334
  0.3333333333333334  0.6666666666666667  0.3937258591466666
  0.3387978142076893  0.7431693989068425  0.3062741408533334
  0.2677595628390685  0.7486338797805715  0.3937258591466666
  0.2732240437168759  0.8251366120207473  0.3062741408533334
  0.2021857923482551  0.8306010928944763  0.3937258591466666
  0.2076502732226111  0.9071038251346520  0.3062741408533334
  0.1366120218559829  0.9125683060123664  0.3937258591466666
  0.1420765027337903  0.9890710382525422  0.3062741408533334
  0.0710382513651695  0.9945355191262711  0.3937258591466666
  0.0109289617487120  0.1530054644803517  0.3062741408533334
  0.9398907103800911  0.1584699453540806  0.3937258591466666
  0.9453551912578986  0.2349726775942564  0.3062741408533334
  0.8743169398912705  0.2404371584719707  0.3937258591466666
  0.8797814207656264  0.3169398907121466  0.3062741408533334
  0.8087431693970056  0.3224043715858755  0.3937258591466666
  0.8142076502748130  0.3989071038260513  0.3062741408533334
  0.7431693989061920  0.4043715846997802  0.3937258591466666
  0.7486338797839995  0.4808743169399561  0.3062741408533334
  0.6775956284153787  0.4863387978136850  0.3937258591466666
  0.6830601092897347  0.5628415300538608  0.3062741408533334
  0.6120218579211139  0.5683060109275898  0.3937258591466666
  0.6174863387989213  0.6448087431677656  0.3062741408533334
  0.5464480874322931  0.6502732240454799  0.3937258591466666
  0.5519125683066491  0.7267759562856557  0.3062741408533334
  0.4808743169380283  0.7322404371593847  0.3937258591466666
  0.4863387978158357  0.8087431693995605  0.3062741408533334
  0.4153005464472149  0.8142076502732895  0.3937258591466666
  0.4207650273250223  0.8907103825134653  0.3062741408533334
  0.3497267759564014  0.8961748633871942  0.3937258591466666
  0.3551912568307574  0.9726775956273700  0.3062741408533334
  0.2841530054621366  0.9781420765010990  0.3937258591466666
  0.2896174863399439  0.0546448087412747  0.3062741408533334
  0.2185792349733158  0.0601092896189890  0.3937258591466666
  0.0273224043717801  0.3825136612008792  0.3062741408533334
  0.9562841530031593  0.3879781420746081  0.3937258591466666
  0.9617486338829593  0.4644808743187693  0.3062741408533334
  0.8907103825143384  0.4699453551924982  0.3937258591466666
  0.8961748633886945  0.5464480874326740  0.3062741408533334
  0.8251366120200736  0.5519125683064030  0.3937258591466666
  0.8306010928978811  0.6284153005465788  0.3062741408533334
  0.7595628415292601  0.6338797814203078  0.3937258591466666
  0.7650273224036162  0.7103825136604835  0.3062741408533334
  0.6939890710349954  0.7158469945342125  0.3937258591466666
  0.6994535519128028  0.7923497267743883  0.3062741408533334
  0.6284153005461746  0.7978142076521026  0.3937258591466666
  0.6338797814239820  0.8743169398922784  0.3062741408533334
  0.5628415300553611  0.8797814207660074  0.3937258591466666
  0.5683060109297172  0.9562841530061833  0.3062741408533334
  0.4972677595610963  0.9617486338799122  0.3937258591466666
  0.5027322404389036  0.0382513661200879  0.3062741408533334
  0.4316939890702828  0.0437158469938169  0.3937258591466666
  0.0437158469968408  0.6120218579253920  0.3062741408533334
  0.9726775956282199  0.6174863387991210  0.3937258591466666
  0.9781420765060274  0.6939890710392967  0.3062741408533334
  0.9071038251374065  0.6994535519130257  0.3937258591466666
  0.9125683060117625  0.7759562841532015  0.3062741408533334
  0.8415300546431417  0.7814207650269305  0.3937258591466666
  0.8469945355209492  0.8579234972671063  0.3062741408533334
  0.7759562841523283  0.8633879781408352  0.3937258591466666
  0.7814207650266842  0.9398907103810111  0.3062741408533334
  0.7103825136600560  0.9453551912587254  0.3937258591466666
  0.7158469945378635  0.0218579234989011  0.3062741408533334
  0.6448087431692426  0.0273224043726300  0.3937258591466666
  0.0601092896199089  0.8415300546459195  0.3062741408533334
  0.9890710382512879  0.8469945355196484  0.3937258591466666
  0.9945355191256440  0.9234972677598242  0.3062741408533334
  0.9234972677570231  0.9289617486335532  0.3937258591466666
  0.9289617486348305  0.0054644808737289  0.3062741408533334
  0.8579234972662095  0.0109289617474579  0.3937258591466666
  0.0710382513658198  0.0765027322401758  0.6062741408533333
  0.9945355191234699  0.0710382513664469  0.6937258591466667
  0.3005464480879591  0.0928961748653480  0.6062741408533333
  0.2240437158436166  0.0874316939876337  0.6937258591466667
  0.2185792349739894  0.1584699453540806  0.6062741408533333
  0.1420765027316396  0.1530054644803517  0.6937258591466667
  0.1366120218585611  0.2240437158467986  0.6062741408533333
  0.0601092896162113  0.2185792349730696  0.6937258591466667
  0.5300546448115570  0.1092896174865348  0.6062741408533333
  0.4535519125692072  0.1038251366128059  0.6937258591466667
  0.4480874316961287  0.1748633879792528  0.6062741408533333
  0.3715846994537789  0.1693989071055238  0.6937258591466667
  0.3661202185807003  0.2404371584719707  0.6062741408533333
  0.2896174863363578  0.2349726775942564  0.6937258591466667
  0.2841530054667306  0.3060109289607033  0.6062741408533333
  0.2076502732243809  0.3005464480869744  0.6937258591466667
  0.2021857923513023  0.3715846994534213  0.6062741408533333
  0.1256830601089525  0.3661202185796923  0.6937258591466667
  0.1202185792358739  0.4371584699461392  0.6062741408533333
  0.0437158469935241  0.4316939890724103  0.6937258591466667
  0.7595628415317036  0.1256830601077216  0.6062741408533333
  0.6830601092893537  0.1202185792339927  0.6937258591466667
  0.6775956284162752  0.1912568306004396  0.6062741408533333
  0.6010928961739255  0.1857923497267106  0.6937258591466667
  0.5956284153008469  0.2568306010931575  0.6062741408533333
  0.5191256830584969  0.2513661202194286  0.6937258591466667
  0.5136612021888699  0.3224043715858755  0.6062741408533333
  0.4371584699465201  0.3169398907121466  0.6937258591466667
  0.4316939890714488  0.3879781420746081  0.6062741408533333
  0.3551912568290990  0.3825136612008792  0.6937258591466667
  0.3497267759560205  0.4535519125673260  0.6062741408533333
  0.2732240437136707  0.4480874316935971  0.6937258591466667
  0.2677595628440435  0.5191256830600439  0.6062741408533333
  0.1912568306016937  0.5136612021863151  0.6937258591466667
  0.1857923497286152  0.5846994535527620  0.6062741408533333
  0.1092896174862654  0.5792349726790330  0.6937258591466667
  0.1038251366131868  0.6502732240454799  0.6062741408533333
  0.0273224043688443  0.6448087431677656  0.6937258591466667
  0.9890710382538428  0.1420765027328938  0.6062741408533333
  0.9125683060114931  0.1366120218591649  0.6937258591466667
  0.9071038251384145  0.2076502732256117  0.6062741408533333
  0.8306010928940720  0.2021857923478974  0.6937258591466667
  0.8251366120209934  0.2732240437143443  0.6062741408533333
  0.7486338797786436  0.2677595628406154  0.6937258591466667
  0.7431693989090163  0.3387978142070623  0.6062741408533333
  0.6666666666666666  0.3333333333333334  0.6937258591466667
  0.6612021857935880  0.4043715846997802  0.6062741408533333
  0.5846994535512383  0.3989071038260513  0.6937258591466667
  0.5792349726781597  0.4699453551924982  0.6062741408533333
  0.5027322404358099  0.4644808743187693  0.6937258591466667
  0.4972677595641901  0.5355191256812308  0.6062741408533333
  0.4207650273218403  0.5300546448075019  0.6937258591466667
  0.4153005464487617  0.6010928961739488  0.6062741408533333
  0.3387978142064119  0.5956284153002198  0.6937258591466667
  0.3333333333333334  0.6666666666666667  0.6062741408533333
  0.2568306010909835  0.6612021857929378  0.6937258591466667
  0.2513661202213564  0.7322404371593847  0.6062741408533333
  0.1748633879790066  0.7267759562856557  0.6937258591466667
  0.1693989071059280  0.7978142076521026  0.6062741408533333
  0.0928961748615856  0.7923497267743883  0.6937258591466667
  0.0874316939885070  0.8633879781408352  0.6062741408533333
  0.0109289617461572  0.8579234972671063  0.6937258591466667
  0.0546448087431327  0.2896174863395165  0.6062741408533333
  0.9781420765007829  0.2841530054657875  0.6937258591466667
  0.9726775956311557  0.3551912568322345  0.6062741408533333
  0.8961748633868132  0.3497267759545202  0.6937258591466667
  0.8907103825137346  0.4207650273209670  0.6062741408533333
  0.8142076502713849  0.4153005464472381  0.6937258591466667
  0.8087431693983061  0.4863387978136850  0.6062741408533333
  0.7322404371559564  0.4808743169399561  0.6937258591466667
  0.7267759562863293  0.5519125683064030  0.6062741408533333
  0.6502732240439795  0.5464480874326740  0.6937258591466667
  0.6448087431709010  0.6174863387991210  0.6062741408533333
  0.5683060109285512  0.6120218579253920  0.6937258591466667
  0.5628415300534799  0.6830601092878535  0.6062741408533333
  0.4863387978111301  0.6775956284141246  0.6937258591466667
  0.4808743169415030  0.7486338797805715  0.6062741408533333
  0.4043715846991532  0.7431693989068425  0.6937258591466667
  0.3989071038260746  0.8142076502732895  0.6062741408533333
  0.3224043715837248  0.8087431693995605  0.6937258591466667
  0.3169398907106462  0.8797814207660074  0.6062741408533333
  0.2404371584682964  0.8743169398922784  0.6937258591466667
  0.2349726775986693  0.9453551912587254  0.6062741408533333
  0.1584699453543268  0.9398907103810111  0.6937258591466667
  0.1530054644812482  0.0109289617474579  0.6062741408533333
  0.0765027322388984  0.0054644808737289  0.6937258591466667
  0.0382513661238969  0.5027322404388571  0.6062741408533333
  0.9617486338761030  0.4972677595611429  0.6937258591466667
  0.9562841530064760  0.5683060109275898  0.6062741408533333
  0.8797814207641260  0.5628415300538608  0.6937258591466667
  0.8743169398910475  0.6338797814203078  0.6062741408533333
  0.7978142076486977  0.6284153005465788  0.6937258591466667
  0.7923497267756191  0.6994535519130257  0.6062741408533333
  0.7158469945332693  0.6939890710392967  0.6937258591466667
  0.7103825136636421  0.7650273224057437  0.6062741408533333
  0.6338797814192997  0.7595628415280293  0.6937258591466667
  0.6284153005462212  0.8306010928944763  0.6062741408533333
  0.5519125683038714  0.8251366120207473  0.6937258591466667
  0.5464480874307928  0.8961748633871942  0.6062741408533333
  0.4699453551884430  0.8907103825134653  0.6937258591466667
  0.4644808743188158  0.9617486338799122  0.6062741408533333
  0.3879781420764661  0.9562841530061833  0.6937258591466667
  0.3825136612033874  0.0273224043726300  0.6062741408533333
  0.3060109289610376  0.0218579234989011  0.6937258591466667
  0.0218579234992172  0.7158469945342125  0.6062741408533333
  0.9453551912568672  0.7103825136604835  0.6937258591466667
  0.9398907103837887  0.7814207650269305  0.6062741408533333
  0.8633879781414390  0.7759562841532015  0.6937258591466667
  0.8579234972683605  0.8469945355196484  0.6062741408533333
  0.7814207650260107  0.8415300546459195  0.6937258591466667
  0.7759562841563834  0.9125683060123664  0.6062741408533333
  0.6994535519120409  0.9071038251346520  0.6937258591466667
  0.6939890710389623  0.9781420765010990  0.6062741408533333
  0.6174863387966125  0.9726775956273700  0.6937258591466667
  0.6120218579235339  0.0437158469938169  0.6062741408533333
  0.5355191256811842  0.0382513661200879  0.6937258591466667
  0.0054644808765301  0.9289617486335532  0.6062741408533333
  0.9289617486341801  0.9234972677598242  0.6937258591466667
  0.9234972677611016  0.9945355191262711  0.6062741408533333
  0.8469945355187518  0.9890710382525422  0.6937258591466667
  0.8415300546456732  0.0601092896189890  0.6062741408533333
  0.7650273224013306  0.0546448087412747  0.6937258591466667
