1143
Lattice="39.7113567004 2.22729e-05 -0.0004006147 -19.8556587444 34.3910667907 0.00079431 -0.0002267288 0.0005925125 35.0205229246" Properties=species:S:1:pos:R:3 pbc="T T T"
Te     -14.85955154      32.29405111       6.29297585
Te     -11.69637525      33.88741194       6.34573687
Te     -11.90729134      30.36096399       6.36825209
Te      -8.75720608      31.97964689       6.41759473
Te      -5.61856548      33.63503788       6.45730468
Te     -12.09928285      26.85662795       6.40782256
Te      -8.94636484      28.46676530       6.44750609
Te      -5.80965733      30.10972210       6.47969898
Te      -2.67762483      31.78728425       6.49374679
Te       0.45402999      33.48487474       6.49018352
Te      -9.10939665      24.97807610       6.47611852
Te      -5.97307635      26.60737046       6.50747148
Te      -2.84982147      28.26917484       6.52074877
Te       0.27087640      29.95434157       6.51434313
Te       3.39279145      31.64663833       6.49059163
Te       6.51989291      33.32671298       6.44570156
Te      -9.24736888      21.50635147       6.49041985
Te      -6.10635470      23.12296679       6.52052325
Te      -2.98767138      24.76743180       6.54128301
Te       0.11872276      26.43710752       6.54184039
Te       3.22229789      28.11810598       6.52066417
Te       6.32959936      29.79101413       6.47553953
Te       9.45028664      31.44070077       6.40424596
Te      12.59638992      33.05953219       6.32183501
Te      -6.22070581      19.64870002       6.51428299
Te      -3.09858981      21.27561559       6.54180934
Te       0.00003201      22.92760513       6.55285147
Te       3.08707312      24.59504483       6.54137539
Te       6.17262571      26.26016861       6.50716385
Te       9.26842611      27.90436987       6.44511983
Te      12.38875148      29.52037510       6.36112532
Te      15.54153245      31.10980123       6.28205240
Te      18.71905053      32.68571300       6.23609563
Te      -6.33401176      16.17893123       6.49371420
Te      -3.20102035      17.78890513       6.52077404
Te      -0.09944922      19.42032174       6.54137836
Te       2.97990746      21.07001367       6.54183931
Te       6.05061564      22.72460865       6.52071769
Te       9.12399135      24.36684178       6.47894459
Te      12.21663494      25.98254590       6.41438990
Te      15.33988056      27.57276110       6.33934967
Te      18.49780276      29.14813069       6.28104447
Te      21.67565046      30.71858794       6.26478770
Te      -3.31551387      14.30609171       6.47908078
Te      -0.20024110      15.91554106       6.50714555
Te       2.88397064      17.54173294       6.52053745
Te       5.94985112      19.17959154       6.51420539
Te       9.01133691      20.81625581       6.49355751
Te      12.08187708      22.43833678       6.45639467
Te      15.17613972      24.03746923       6.40448690
Te      18.30344717      25.62073777       6.35141298
Te      21.46288499      27.19493989       6.32156339
Te     -15.07465244      28.77142957       6.32970880
Te      -3.46259705      10.81986355       6.41444860
Te      -0.32425425      12.41231058       6.44508942
Te       2.77903306      14.01426568       6.47529464
Te       5.85453046      15.62985975       6.49024503
Te       8.91589817      17.25565613       6.48992652
Te      11.97593254      18.88244984       6.47915150
Te      15.04925381      20.49867264       6.45617307
Te      18.14908507      22.09954144       6.42316995
Te      21.28196177      23.68689950       6.39205284
Te      24.44386233      25.26846284       6.38419065
Te      -0.48483479       8.90202024       6.36108704
Te       2.64732136      10.48657796       6.40403708
Te       5.74593506      12.08153798       6.44520050
Te       8.81933246      13.69277224       6.47222154
Te      11.88206847      15.32010324       6.48579837
Te      14.94727948      16.95291712       6.48697956
Te      18.02848563      18.57888198       6.47532189
Te      21.13838620      20.18867622       6.45438663
Te      24.28175912      21.78369294       6.43870517
Te     -12.26634492      23.37484792       6.44614780
Te      -0.68393536       5.37710543       6.28185568
Te       2.47628214       6.95216673       6.32238403
Te       5.60658159       8.53568167       6.38196231
Te       8.70515605      10.13696233       6.43854667
Te      11.78223896      11.76170846       6.47743707
Te      14.85222863      13.40567517       6.49922012
Te      17.92844783      15.05386467       6.50344046
Te      21.02439050      16.69111531       6.49404983
Te      24.15041428      18.30643374       6.47721488
Te      27.30418388      19.90703007       6.47196508
Te       2.27080976       3.41057131       6.26077583
Te       5.42838995       4.98898536       6.31965927
Te       8.55634394       6.58694903       6.39186113
Te      11.65786026       8.21196713       6.45446944
Te      14.74411550       9.86219251       6.49409601
Te      17.82915986      11.52671899       6.51185726
Te      20.92342884      13.18726339       6.51182778
Te      24.03917255      14.82581370       6.49897746
Te      27.18225559      16.44082702       6.48552335
Te      -9.36980545      18.04192163       6.49002231
Te       5.21805944       1.44228794       6.28534112
Te       8.36966548       3.03880369       6.35373542
Te      11.49689553       4.66710115       6.42355363
Te      14.60692439       6.32365945       6.47516130
Te      17.71006938       7.99972365       6.50327213
Te      20.81440745       9.67736928       6.51180344
Te      23.92846736      11.33769105       6.50331904
Te      27.06366984      12.96983056       6.48677243
Te      30.22039509      14.57840563       6.47893675
Te      11.30427877       1.12309118       6.40622680
Te      14.43363499       2.78356634       6.45606729
Te      17.55590660       4.46842713       6.48656241
Te      20.67565738       6.15981105       6.49896301
Te      23.79840206       7.83792297       6.49405140
Te      26.93118840       9.48844337       6.47526305
Te      30.08336332      11.10866273       6.45598866
Te      -6.46450743      12.70866236       6.45661937
Te      17.37049152       0.93035034       6.47862353
Te      20.50279351       2.63035019       6.48541273
Te      23.63432677       4.32308824       6.47726703
Te      26.77020246       5.99033063       6.45431190
Te      29.91967068       7.62370081       6.42283071
Te      33.08451357       9.22942390       6.40413689
Te      23.44355132       0.79161768       6.47194252
Te      26.57965021       2.47068205       6.43831542
Te      29.72744027       4.11700382       6.39085614
Te      32.89181282       5.72970143       6.34981348
Te      -3.64694424       7.32012852       6.33881775
Te      29.51535219       0.58781328       6.38112336
Te      32.67466888       2.20668412       6.31675030
Te      35.85017349       3.79798882       6.27807757
Te      35.62183392       0.26038069       6.25720637
Te      -0.90661163       1.83796411       6.23413581
Te     -17.80913463      34.25695474       6.24011109
Te     -14.92129822      32.31190173       9.91053386
Te     -11.76311072      33.88528423       9.96694718
Te     -11.98041100      30.38444079       9.99101014
Te      -8.81802258      31.99018028      10.04053727
Te      -5.65436821      33.63843175      10.07953776
Te     -12.17025350      26.89197778      10.03098510
Te      -9.01181847      28.48771740      10.07370213
Te      -5.85303640      30.12855365      10.10569875
Te      -2.69515307      31.80574902      10.11647275
Te       0.46233059      33.50141616      10.11140548
Te      -9.16775588      24.99405069      10.10269623
Te      -6.01736014      26.62097993      10.13523433
Te      -2.87340431      28.29004962      10.14773074
Te       0.26915074      29.98261957      10.13985980
Te       3.41855917      31.67848625      10.11386298
Te       6.57742240      33.35620196      10.06850826
Te      -9.28760302      21.51212560      10.11375200
Te      -6.14316904      23.12064753      10.14775528
Te      -3.00968596      24.77359354      10.16930786
Te       0.11453839      26.45757773      10.16897236
Te       3.23909226      28.15118678      10.14785906
Te       6.37477786      29.83368317      10.10196596
Te       9.52130221      31.48410430      10.02767177
Te      12.67001412      33.09017595       9.94262837
Te      -6.24439360      19.63310851      10.13981740
Te      -3.11424391      21.26181317      10.16895785
Te       0.00001733      22.92760329      10.18084454
Te       3.10356954      24.61103400      10.16943430
Te       6.20772661      26.29198402      10.13501356
Te       9.32262058      27.95171113      10.07119871
Te      12.44990432      29.57352976       9.98400031
Te      15.58618200      31.15529820       9.90158132
Te      18.72630469      32.71092516       9.85365632
Te      -6.34116956      16.15434439      10.11649251
Te      -3.20735601      17.75785014      10.14777773
Te      -0.09377497      19.39810627      10.16943822
Te       2.99976911      21.06333448      10.16899582
Te       6.08079414      22.73463273      10.14768517
Te       9.16312427      24.39584325      10.10501930
Te      12.25798069      26.03285922      10.03759335
Te      15.37034842      27.63619970       9.96040226
Te      18.49874468      29.20767142       9.90044295
Te      21.63848235      30.75973758       9.88335765
Te      -3.30980487      14.25771812      10.10509952
Te      -0.19004363      15.86926312      10.13500475
Te       2.90435234      17.51058314      10.14774573
Te       5.97525160      19.16684163      10.13976897
Te       9.03629745      20.82233787      10.11634344
Te      12.10317819      22.46880851      10.07877605
Te      15.18829137      24.09380160      10.02659597
Te      18.29675982      25.69152716       9.97341561
Te      21.42763250      27.25973325       9.94183706
Te     -15.13715534      28.81491410       9.95067348
Te      -3.43963438      10.75860500      10.03762084
Te      -0.31008299      12.34165062      10.07115644
Te       2.79359191      13.95378737      10.10165408
Te       5.86934649      15.59142508      10.11357573
Te       8.92608243      17.24002344      10.11112524
Te      11.97930526      18.89003796      10.09966987
Te      15.04480661      20.53299446      10.07844487
Te      18.13479969      22.15820279      10.04609771
Te      21.25120890      23.75412066      10.01491927
Te      24.38970022      25.32367827      10.00550820
Te      -0.46960810       8.82221509       9.98386899
Te       2.64967424      10.40366179      10.02746414
Te       5.74287512      12.01710259      10.06806648
Te       8.81262459      13.65543456      10.09313017
Te      11.87071259      15.30785427      10.10595905
Te      14.93300578      16.96464694      10.10843074
Te      18.01185863      18.61407918      10.09883161
Te      21.11641923      20.23980653      10.07771009
Te      24.24533529      21.83361199      10.06056149
Te     -12.31972787      23.40794110      10.06900555
Te      -0.66902806       5.31455173       9.90123415
Te       2.46578056       6.87400721       9.94319903
Te       5.58320195       8.45959623      10.00331525
Te       8.67953098      10.07972799      10.06031591
Te      11.75936273      11.73090231      10.09946798
Te      14.83373893      13.39800746      10.12068197
Te      17.91505498      15.06681443      10.12648705
Te      21.01380741      16.72039535      10.11711137
Te      24.13534500      18.34154178      10.09926609
Te      27.27549905      19.93106568      10.09295544
Te       2.24900964       3.36398572       9.87818962
Te       5.38754988       4.92937319       9.94038808
Te       8.51308246       6.52750005      10.01465234
Te      11.62470630       8.16741967      10.07765139
Te      14.72413687       9.83810550      10.11712891
Te      17.82046275      11.52143601      10.13429185
Te      20.92334469      13.19743813      10.13427623
Te      24.04190828      14.84565756      10.12049367
Te      27.17735983      16.45679901      10.10572409
Te      -9.38839125      18.04088256      10.11125649
Te       5.16515375       1.42082795       9.90453217
Te       8.31293987       3.00139849       9.97491854
Te      11.45424912       4.62657779      10.04640154
Te      14.58507694       6.29162744      10.09856994
Te      17.70559424       7.98145200      10.12628805
Te      20.82329136       9.67238037      10.13422619
Te      23.94642797      11.34285039      10.12636803
Te      27.08103128      12.97644169      10.10822897
Te      30.22523332      14.57176434      10.09941366
Te      11.25168195       1.10716572      10.02798384
Te      14.40688147       2.76286729      10.07820717
Te      17.55295596       4.45006559      10.10802418
Te      20.69141509       6.14742848      10.12041231
Te      23.82916407       7.83250436      10.11711177
Te      26.97016740       9.48532517      10.09873515
Te      30.11542076      11.09539598      10.07825719
Te      -6.44870538      12.67494248      10.07891679
Te      17.36241887       0.92948673      10.09907284
Te      20.51893501       2.62651117      10.10554331
Te      23.67237993       4.31856769      10.09931216
Te      26.82591108       5.98369104      10.07760697
Te      29.97806459       7.60639528      10.04569115
Te      33.12723418       9.19026844      10.02609316
Te      23.47912574       0.80436645      10.09286004
Te      26.64259245       2.47699246      10.06012328
Te      29.80257340       4.10899891      10.01363877
Te      32.95680568       5.69843179       9.97176814
Te      -3.60782626       7.26072193       9.95978176
Te      29.59413701       0.60568076      10.00257067
Te      32.74978482       2.20181729       9.93756974
Te      35.89926781       3.76405475       9.89710184
Te      35.67283559       0.26757032       9.87522065
Te      -0.89451044       1.81638683       9.85255949
Te     -17.84113081      34.25698365       9.85838654
Te     -14.69520402      32.97160556      13.77120050
Te     -14.47375245      29.46536058      13.73970370
Te     -11.55005766      31.39098904      13.71599144
Te      -8.61301135      33.28402185      13.67592849
Te     -11.34937957      27.86659400      13.68446595
Te      -8.41027713      29.76600526      13.66231952
Te      -5.45828287      31.62770729      13.63935663
Te      -2.49882574      33.46025973      13.62138059
Te     -11.18192482      24.31493423      13.64908512
Te      -8.23768662      26.22647789      13.63902211
Te      -5.27818071      28.10021615      13.62488295
Te      -2.30839474      29.94153340      13.61669180
Te       0.66294479      31.76490451      13.61683110
Te       3.62804603      33.58772313      13.62454187
Te      -8.10046061      22.66261297      13.62194373
Te      -5.13636426      24.55399789      13.61060038
Te      -2.15412253      26.41096609      13.60365618
Te       0.83507941      28.24579256      13.60754430
Te       3.82054553      30.07541307      13.62204200
Te       6.79188572      31.91797343      13.64899507
Te       9.74369833      33.78938812      13.68832043
Te      -7.98480541      19.08327432      13.61665393
Te      -5.02317942      20.99188083      13.60744496
Te      -2.03685038      22.86958870      13.59738241
Te       0.96811829      24.72067422      13.59738725
Te       3.97656965      26.56272446      13.61057310
Te       6.97539460      28.41231834      13.63882167
Te       9.95118254      30.28735283      13.68368069
Te      12.89804344      32.19435760      13.73789579
Te      15.82180085      34.12731051      13.78453037
Te      -4.92001207      17.42175590      13.61649533
Te      -1.93953577      19.32057319      13.60358529
Te       1.06875044      21.19277643      13.59734634
Te       4.09366264      23.05154847      13.60358026
Te       7.11855452      24.91239323      13.62467957
Te      10.12683550      26.79199393      13.66160444
Te      13.10357486      28.69897704      13.71399450
Te      16.04563635      30.63283508      13.76820179
Te      18.96360484      32.57836645      13.80355067
Te      -4.80536983      13.85098097      13.63892574
Te      -1.84047860      15.77054883      13.62463978
Te       1.15976596      17.66637613      13.61046657
Te       4.18812035      19.54541570      13.60734526
Te       7.22835870      21.41982858      13.61645913
Te      10.26341552      23.30454663      13.63892280
Te      13.27495160      25.20848997      13.67478554
Te      16.24870063      27.13664348      13.72226697
Te      19.18553646      29.08158465      13.76604574
Te     -17.60896798      31.03043103      13.78635737
Te      -1.71691231      12.22552658      13.66149429
Te       1.26210731      14.14453559      13.63856495
Te       4.27982983      16.04508596      13.62174441
Te       7.32182328      17.93491167      13.61651152
Te      10.37093951      19.82535134      13.62103434
Te      13.40830421      21.72430807      13.63600338
Te      16.41540705      23.63969948      13.66484312
Te      19.38313976      25.57462313      13.70323619
Te      22.31698146      27.52184936      13.73436502
Te      -1.55374325       8.69411820      13.71391733
Te       1.39800989      10.62989999      13.68344715
Te       4.38987093      12.55057581      13.64860702
Te       7.41789985      14.45566560      13.62411959
Te      10.46557000      16.35061977      13.60890816
Te      13.51429124      18.24229891      13.60383639
Te      16.54506766      20.14127348      13.61300520
Te      19.54242247      22.05641616      13.63755453
Te      22.50002894      23.99204687      13.67013518
Te     -14.27839935      25.93589457      13.68889289
Te       1.57618226       7.12437687      13.73806883
Te       4.53455888       9.05843836      13.68818578
Te       7.53357181      10.97547597      13.64071708
Te      10.56418022      12.87324443      13.60546315
Te      13.60878685      14.75732707      13.58308649
Te      16.64788560      16.63843496      13.57658339
Te      19.66402005      18.52916192      13.58762675
Te      22.64522495      20.44437933      13.61445088
Te      25.59360135      22.37979038      13.64069514
Te       1.78855662       3.62613375      13.78520348
Te       4.71915013       5.56645336      13.73470475
Te       7.68400083       7.49001237      13.67028903
Te      10.68374960       9.38963452      13.61439842
Te      13.70888170      11.26590836      13.57705330
Te      16.74021697      13.12945660      13.55869204
Te      19.76089287      14.99670350      13.55895431
Te      22.75752802      16.88640302      13.57712707
Te      25.72186273      18.80621702      13.60540461
Te     -11.04599138      20.73982500      13.62437859
Te       4.93402233       2.07469001      13.76779395
Te       7.87174536       3.99933097      13.70405362
Te      10.83893073       5.89636501      13.63766730
Te      13.83291407       7.76533613      13.58743267
Te      16.84371686       9.61548183      13.55884731
Te      19.85564103      11.46390745      13.54989562
Te      22.85576761      13.32939386      13.55861755
Te      25.83125682      15.22742145      13.58301258
Te      28.78264043      17.15288426      13.60874847
Te       8.08609310       0.50428148      13.72396720
Te      11.03109909       2.39674047      13.66522240
Te      13.99618204       4.25816165      13.61281453
Te      16.97842641       6.09866987      13.57635799
Te      19.97109622       7.93316122      13.55853900
Te      22.96247179       9.77980407      13.55880964
Te      25.94075979      11.65492051      13.57643810
Te      28.89655991      13.56673699      13.60363000
Te      -7.87213847      15.49745123      13.62116544
Te      14.19354557       0.75020500      13.63578667
Te      17.15616101       2.58294861      13.60350405
Te      20.12700214       4.40728149      13.58283626
Te      23.10061610       6.23971731      13.57692046
Te      26.07005247       8.09747380      13.58740415
Te      29.02568810       9.99255501      13.61276155
Te      31.96501090      11.91756762      13.63565020
Te      20.31875885       0.88849122      13.60855484
Te      23.28092435       2.71260406      13.60519452
Te      26.23794274       4.55805291      13.61419829
Te      29.18548322       6.43922612      13.63725705
Te      32.12020085       8.35570317      13.66453625
Te      -4.66232219      10.29096788      13.67477720
Te      26.43968251       1.03695108      13.64035788
Te      29.38278164       2.91012929      13.66963918
Te      32.31201038       4.81828318      13.70270456
Te      35.23204078       6.75174759      13.72181677
Te      32.53116429       1.30422830      13.73316646
Te      35.44820679       3.23631124      13.76514485
Te      -1.34971165       5.17958742      13.76825976
Te      38.58802041       1.68017353      13.80279588
Te       2.01739693       0.13415367      13.80463279
Te     -14.65789857      32.94789102      17.39219859
Te     -14.45013745      29.41385085      17.36200020
Te     -11.51193015      31.35486264      17.33841958
Te      -8.57486823      33.26528551      17.29885395
Te     -11.32494377      27.81536366      17.30718418
Te      -8.38334206      29.72951044      17.28507776
Te      -5.43965875      31.60848484      17.25879999
Te      -2.49221529      33.45986282      17.23779795
Te     -11.17011990      24.26787436      17.27009839
Te      -8.21881289      26.18668420      17.26044158
Te      -5.26522665      28.07250791      17.24465634
Te      -2.30802201      29.92708892      17.23398218
Te       0.64940567      31.76577653      17.23290879
Te       3.60149050      33.60433836      17.24226278
Te      -8.08753023      22.63517812      17.24002773
Te      -5.12395163      24.53141712      17.22945424
Te      -2.15310335      26.39551078      17.22139307
Te       0.82070255      28.23857362      17.22402060
Te       3.79049855      30.07788328      17.24010905
Te       6.74582191      31.93117746      17.27001093
Te       9.68732356      33.81167950      17.31166031
Te      -7.97878452      19.07103711      17.23272744
Te      -5.00975860      20.98295041      17.22393199
Te      -2.03014930      22.86344314      17.21446245
Te       0.95953299      24.71792536      17.21445416
Te       3.95099036      26.56323674      17.22943357
Te       6.93198724      28.41586398      17.26024205
Te       9.89564064      30.29158252      17.30639584
Te      12.84261872      32.19898552      17.36042824
Te      15.78311809      34.13603417      17.40589888
Te      -4.90769803      17.42917166      17.23382617
Te      -1.92667246      19.32909536      17.22130571
Te       1.07079261      21.20158592      17.21440526
Te       4.07990305      23.05835033      17.22127023
Te       7.08833185      24.91503710      17.24445618
Te      10.08258091      26.78703552      17.28440082
Te      13.05458919      28.68411881      17.33668675
Te      16.00662861      30.61202474      17.38957090
Te      18.94982375      32.56255279      17.42506942
Te      -4.79796539      13.87630020      17.25838281
Te      -1.82294209      15.79536202      17.24438890
Te       1.17315147      17.68825982      17.22932052
Te       4.18919180      19.56141801      17.22383511
Te       7.21580058      21.42672630      17.23373262
Te      10.23784481      23.29816554      17.25834336
Te      13.24029996      25.18534371      17.29770994
Te      16.21540036      27.09769576      17.34537288
Te      19.16912338      29.03672234      17.38775415
Te     -17.59842157      30.99211895      17.40744578
Te      -1.69889278      12.26629745      17.28430192
Te       1.28701839      14.18028217      17.25999784
Te       4.29714028      16.06984633      17.23981658
Te       7.32946205      17.94614465      17.23259475
Te      10.36742277      19.81984067      17.23741287
Te      13.39341638      21.69964746      17.25653209
Te      16.39376202      23.59601466      17.28866899
Te      19.36524932      25.51673358      17.32746396
Te      22.31815344      27.46123752      17.35689863
Te      -1.54208171       8.74403870      17.33664734
Te       1.42957847      10.67599515      17.30619324
Te       4.42447700      12.58396858      17.26965997
Te       7.44566250      14.47032086      17.24185872
Te      10.48286652      16.34654853      17.22551787
Te      13.51800570      18.22003398      17.22334293
Te      16.53557005      20.10220346      17.23678755
Te      19.52487777      22.00335585      17.26387736
Te      22.49035321      23.93033484      17.29478537
Te     -14.26931337      25.87499096      17.31218283
Te       1.60782800       7.17037936      17.36056902
Te       4.58226720       9.09660776      17.31156711
Te       7.57969007      10.99544826      17.26304679
Te      10.59901326      12.87374526      17.22551432
Te      13.62751220      14.74216035      17.20364614
Te      16.64879711      16.61102852      17.19953890
Te      19.65024456      18.49210772      17.21311350
Te      22.62735682      20.39777287      17.23939332
Te      25.58791474      22.32988707      17.26298554
Te       1.81470840       3.65533090      17.40667326
Te       4.77049226       5.59848799      17.35711101
Te       7.74245799       7.51284990      17.29499712
Te      10.73319939       9.39747722      17.23933985
Te      13.73988197      11.26085278      17.20036102
Te      16.75082248      13.11683553      17.18269874
Te      19.75325574      14.97857419      17.18341297
Te      22.73782638      16.86206570      17.20043876
Te      25.70499443      18.77579033      17.22546941
Te     -11.04704444      20.70837157      17.24209113
Te       4.98054266       2.08374843      17.38904795
Te       7.93129060       4.01361397      17.32837541
Te      10.89401185       5.90805707      17.26396633
Te      13.87201489       7.77200357      17.21294393
Te      16.86327737       9.61782110      17.18330527
Te      19.85574434      11.46395184      17.17382648
Te      22.83962256      13.32647414      17.18262359
Te      25.80888548      15.21875162      17.20355140
Te      28.77058442      17.13986163      17.22529112
Te       8.13715842       0.49498176      17.34672432
Te      11.08045737       2.40010333      17.28899667
Te      14.03505596       4.26955062      17.23663837
Te      17.00174573       6.11308443      17.19928358
Te      19.97674940       7.94854000      17.18259459
Te      22.95071534       9.79544475      17.18327800
Te      25.91668864      11.66777712      17.19936261
Te      28.87555781      13.57465202      17.22312975
Te      -7.87508559      15.50324654      17.23753180
Te      14.22269147       0.74961854      17.25635391
Te      17.17366380       2.59722778      17.22302448
Te      20.13078771       4.43097916      17.20338667
Te      23.08948501       6.26896384      17.20024171
Te      26.04491319       8.12787570      17.21287806
Te      28.99670022      10.02030668      17.23653226
Te      31.95120753      11.94274721      17.25625587
Te      20.31361466       0.90546524      17.22513168
Te      23.26313883       2.74243751      17.22524495
Te      26.20665492       4.59683449      17.23913762
Te      29.14841383       6.48085066      17.26357416
Te      32.09328856       8.39624633      17.28834634
Te      -4.66488972      10.33250834      17.29770971
Te      26.39964516       1.06682774      17.26266703
Te      29.33450691       2.94920468      17.29432341
Te      32.27092414       4.86243413      17.32695128
Te      35.21494536       6.79981620      17.34493629
Te      32.47847321       1.33277013      17.35575321
Te      35.41725249       3.27214903      17.38687474
Te      -1.34873518       5.22349641      17.38960392
Te      38.57990503       1.69902067      17.42426542
Te       2.03617749       0.13073993      17.42565375
Te     -15.60867421      31.08677978      20.75082006
Te     -15.43334020      27.56609097      20.71653315
Te     -12.47689366      29.47393900      20.71022262
Te      -9.52258832      31.37179538      20.68652924
Te     -12.31009871      25.94971079      20.67539205
Te      -9.35259562      27.84843250      20.66600988
Te      -6.39575559      29.73555672      20.64487294
Te      -3.43495255      31.61245601      20.62037502
Te     -12.15652492      22.42017963      20.63639513
Te      -9.19376595      24.32037690      20.63675639
Te      -6.23327984      26.21065185      20.62798242
Te      -3.27150362      28.09096192      20.61472030
Te      -0.30448372      29.96389211      20.60611735
Te       2.66833709      31.83397224      20.61229567
Te      -9.04712048      20.78555063      20.61227247
Te      -6.08299833      22.68087635      20.61080298
Te      -3.11673193      24.56824529      20.60419069
Te      -0.14631827      26.44591548      20.60135001
Te       2.82771968      28.31925065      20.61075897
Te       5.80292517      30.19351400      20.63660592
Te       8.77212700      32.07770123      20.67508544
Te      -8.90882803      17.24628737      20.60395481
Te      -5.94117184      19.14601316      20.60596728
Te      -2.97362506      21.04197824      20.60126867
Te       0.00005803      22.92778930      20.59694293
Te       2.97908446      24.80672522      20.60412749
Te       5.95975229      26.68453352      20.62777025
Te       8.93774942      28.56705327      20.66560315
Te      11.90765881      30.46005598      20.70968556
Te      14.87032143      32.36574787      20.75026704
Te      -5.80361687      15.61063766      20.61999268
Te      -2.83560961      17.51300687      20.61444243
Te       0.13772281      19.40839804      20.60403645
Te       3.12002067      21.29542416      20.60123516
Te       6.10728197      23.17940499      20.61447525
Te       9.09368959      25.06279234      20.64445996
Te      12.07416292      26.95266693      20.68590155
Te      15.04592421      28.85429174      20.72876777
Te      18.00849960      30.76778765      20.76215077
Te      -5.66258678      12.07662977      20.65096651
Te      -2.69777151      13.98496506      20.64439881
Te       0.27363283      15.88820064      20.62759593
Te       3.25535348      17.78322610      20.61061856
Te       6.24572370      19.67342078      20.60586369
Te       9.23873433      21.56018975      20.61998187
Te      12.22872046      23.44934798      20.65099148
Te      15.21107116      25.34649170      20.68995247
Te      18.18310535      27.25544228      20.72620495
Te      21.14622586      29.17074958      20.74872788
Te      -2.55135643      10.45884988      20.68582431
Te       0.41496101      12.36784320      20.66541318
Te       3.39085753      14.26946955      20.63634063
Te       6.37886033      16.16386157      20.61200950
Te       9.37483500      18.05320087      20.60381644
Te      12.37121890      19.94385417      20.61630168
Te      15.36212913      21.83940470      20.64394560
Te      18.34341617      23.74302917      20.67734992
Te      21.31486352      25.65367216      20.70389557
Te      -2.39043541       6.93441781      20.72862997
Te       0.56932687       8.84933479      20.70952201
Te       3.53802526      10.75595164      20.67481254
Te       6.51788530      12.65369279      20.63601032
Te       9.51014808      14.54434698      20.60560532
Te      12.50732167      16.43505644      20.59353187
Te      15.50265755      18.32914972      20.60341126
Te      18.49072339      20.22810996      20.62702007
Te      21.46858690      22.13433611      20.65218804
Te      24.43855149      24.04326861      20.66998716
Te       0.73837957       5.33080381      20.75014043
Te       3.69970379       7.24301130      20.71598112
Te       6.67041923       9.14342052      20.66992495
Te       9.65230598      11.03493108      20.62451544
Te      12.64415421      12.92360662      20.59114001
Te      15.63823182      14.81395587      20.57863504
Te      18.62825331      16.70884501      20.58652863
Te      21.61136789      18.61033738      20.60583238
Te      24.58572134      20.51509576      20.62451777
Te       0.92252533       1.81250541      20.77473031
Te       3.87594961       3.72855950      20.74856095
Te       6.83762974       5.63306063      20.70383547
Te       9.80862196       7.52575972      20.65212823
Te      12.78904166       9.41145043      20.60576343
Te      15.77747856      11.29522744      20.57449614
Te      18.76585336      13.18492872      20.56574687
Te      21.74859554      15.08044800      20.57455025
Te      24.72546211      16.97976676      20.59109033
Te      27.69607304      18.88348966      20.60549615
Te       4.06181526       0.21257790      20.76194654
Te       7.01638714       2.11997752      20.72615882
Te       9.97811253       4.01496099      20.67732660
Te      12.94837472       5.89999064      20.62687630
Te      15.92735697       7.77873834      20.58629896
Te      18.91040643       9.65986927      20.56564834
Te      21.89090192      11.54758647      20.56569531
Te      24.86549281      13.44164551      20.57852122
Te      27.83487715      15.34249831      20.59331213
Te     -12.65534425      32.99462619      20.72939159
Te      10.15561718       0.50047720      20.68989015
Te      13.11723993       2.38483923      20.64374750
Te      16.08686196       4.26169645      20.60313249
Te      19.06341847       6.13671793      20.57838226
Te      22.04110482       8.01667310      20.57436988
Te      25.01143076       9.90478947      20.58630896
Te      27.97751081      11.80141347      20.60314672
Te      30.94171988      13.70596082      20.61596527
Te      -6.56593903      33.25731722      20.65151944
Te      16.25424287       0.74240604      20.61596448
Te      19.22493396       2.61468463      20.59318337
Te      22.19755928       4.48898545      20.59087399
Te      25.16668184       6.37054899      20.60557514
Te      28.12802546       8.26423137      20.62667450
Te      31.08781624      10.16798960      20.64355384
Te      -0.46588889      33.48383849      20.60415362
Te      22.36091885       0.96448473      20.60522852
Te      25.32901160       2.84231497      20.62419479
Te      28.28995392       4.73221843      20.65177252
Te      31.24572734       6.63435213      20.67689531
Te      34.20056472       8.54529148      20.68950799
Te       5.63870262      33.70945020      20.63633426
Te      28.45814137       1.20564274      20.66942485
Te      31.41465280       3.10562141      20.70327676
Te      34.36771546       5.01692287      20.72561652
Te      11.73361751      33.97424152      20.71611985
Te      34.54481984       1.49303248      20.74797225
Te      37.49676202       3.41199289      20.76149401
Te      17.82516872      34.28444523      20.77502614
Te     -18.74773284      32.68650670      20.77544385
Te     -15.58656661      31.06604987      24.36777635
Te     -15.41642714      27.52995837      24.33610178
Te     -12.44655035      29.45027798      24.33087582
Te      -9.48334646      31.36165739      24.30875021
Te     -12.28856748      25.91555001      24.29847665
Te      -9.32232527      27.82642594      24.29034234
Te      -6.36209170      29.72620747      24.27036323
Te      -3.40776944      31.61406305      24.24591059
Te     -12.14671999      22.38773816      24.25993876
Te      -9.17544022      24.29537266      24.26243134
Te      -6.21085451      26.19555723      24.25453756
Te      -3.25165866      28.08508735      24.24200865
Te      -0.29790018      29.96457425      24.23276142
Te       2.65411347      31.83843400      24.23774795
Te      -9.04382663      20.77075486      24.23770211
Te      -6.07340967      22.67067558      24.23776589
Te      -3.10625380      24.56200527      24.23282327
Te      -0.14356349      26.44230989      24.22949445
Te       2.81426029      28.31605412      24.23774279
Te       5.77230526      30.19005948      24.26225307
Te       8.73198271      32.07602886      24.29819857
Te      -8.91997905      17.25006170      24.22872299
Te      -5.94498403      19.15115664      24.23258198
Te      -2.97178339      21.04601477      24.22944584
Te       0.00011130      22.92772541      24.22611707
Te       2.96866291      24.80076510      24.23274760
Te       5.93565860      26.67263740      24.25429729
Te       8.90375005      28.55182909      24.28996818
Te      11.87209818      30.44553826      24.33042917
Te      14.84131365      32.35689266      24.36737598
Te      -5.81848706      15.63317574      24.24557498
Te      -2.84043517      17.53290956      24.24173011
Te       0.13795423      19.42038710      24.23268010
Te       3.11564301      21.29485681      24.22937520
Te       6.09243047      23.16518150      24.24172147
Te       9.06897879      25.03838878      24.26994217
Te      12.04584234      26.92366737      24.30824677
Te      15.02157347      28.82564187      24.34805060
Te      17.99690265      30.74548448      24.37873367
Te      -5.68443062      12.11069765      24.27455735
Te      -2.70643159      14.01858238      24.26986521
Te       0.27550599      15.91494501      24.25418208
Te       3.25943757      17.79642180      24.23756731
Te       6.24323373      19.66741524      24.23249708
Te       9.22663341      21.53592585      24.24556190
Te      12.21020472      23.41327852      24.27457843
Te      15.19250681      25.30556972      24.31145847
Te      18.17346054      27.21565751      24.34509024
Te      21.15181275      29.13803671      24.36618401
Te      -2.56224049      10.49786634      24.30811954
Te       0.41883739      12.40490398      24.28979163
Te       3.40332600      14.29768493      24.26201803
Te       6.38993911      16.17394133      24.23743538
Te       9.37709750      18.04151429      24.22860116
Te      12.36348106      19.91251310      24.23994777
Te      15.35020403      21.79565200      24.26760272
Te      18.33564578      23.69575972      24.29873518
Te      21.31808674      25.60913538      24.32421560
Te      -2.40297308       6.96975635      24.34792738
Te       0.57460191       8.88742950      24.33027504
Te       3.55678914      10.79159398      24.29793621
Te       6.54101428      12.67830791      24.25955562
Te       9.52730700      14.55044175      24.22947341
Te      12.51331558      16.41885783      24.21822224
Te      15.49914494      18.29447155      24.22749995
Te      18.48477159      20.18446815      24.25021829
Te      21.46888787      22.08837296      24.27516826
Te      24.44897957      24.00101578      24.29254964
Te       0.74528959       5.36024826      24.36717909
Te       3.72259700       7.27565142      24.33555997
Te       6.70173997       9.17349313      24.29248142
Te       9.68214066      11.05469963      24.24796813
Te      12.66440779      12.92587397      24.21530232
Te      15.64554223      14.79691676      24.20287937
Te      18.62616278      16.67878341      24.21127148
Te      21.60796377      18.57382157      24.22932517
Te      24.58805754      20.47933166      24.24797741
Te       0.92919744       1.82387159      24.38955815
Te       3.90155778       3.74956043      24.36595406
Te       6.87457622       5.65802831      24.32407687
Te       9.84826285       7.54898247      24.27510945
Te      12.82236671       9.42664602      24.22918581
Te      15.79602169      11.29766747      24.19900945
Te      18.76840804      13.17479174      24.19001144
Te      21.74153999      15.06315680      24.19911466
Te      24.71742534      16.96101212      24.21521966
Te      27.69289420      18.86548697      24.22933789
Te       4.08691674       0.21360476      24.37841659
Te       7.05555662       2.13142058      24.34490449
Te      10.02292514       4.03179464      24.29866748
Te      12.98923162       5.91657077      24.25006890
Te      15.95453132       7.79188668      24.21103490
Te      18.91788629       9.66697795      24.18993249
Te      21.88093502      11.55037892      24.18997362
Te      24.84726114      13.44380192      24.20275969
Te      27.81805817      15.34537898      24.21797908
Te     -12.61843351      32.98776722      24.34858459
Te      10.20027326       0.50483627      24.31132283
Te      13.16123576       2.39631218      24.26740373
Te      16.11880215       4.27589905      24.22719723
Te      19.07452132       6.15140370      24.20263811
Te      22.02966449       8.03136255      24.19893168
Te      24.98654647       9.92152496      24.21104690
Te      27.94938723      11.82178035      24.22719103
Te      30.91855485      13.72834418      24.23960373
Te      -6.52535683      33.25920408      24.27509909
Te      16.28544867       0.75129163      24.23960456
Te      19.23600983       2.62787551      24.21785860
Te      22.18541848       4.50526346      24.21500957
Te      25.13690218       6.39171251      24.22901359
Te      28.09332244       8.29116641      24.24985199
Te      31.05599014      10.20017528      24.26721375
Te      -0.45673524      33.49154974      24.22895431
Te      22.34708730       0.97612356      24.22909149
Te      25.29714278       2.85808279      24.24763310
Te      28.25011778       4.75485977      24.27474687
Te      31.20879026       6.66461340      24.29829970
Te      34.17449570       8.58174406      24.31101078
Te       5.60590547      33.71709533      24.25987078
Te      28.41649746       1.21762657      24.29195943
Te      31.37459786       3.12497478      24.32360161
Te      34.33816966       5.04501819      24.34449460
Te      11.69398740      33.97757831      24.33574741
Te      34.51376156       1.50451990      24.36546325
Te      37.48322154       3.43308568      24.37809689
Te      17.81190343      34.28434002      24.38990183
Te     -18.74103445      32.67498435      24.39026687
Mo     -16.01893042      30.61072382       8.09883176
Mo     -12.85478729      32.18922355       8.14167323
Mo     -13.06616374      28.68039505       8.17671198
Mo      -9.90606234      30.28201984       8.22328507
Mo      -6.75189636      31.92260506       8.26463901
Mo     -13.24975977      25.18483992       8.22278140
Mo     -10.09087919      26.77973800       8.25823738
Mo      -6.93896582      28.40883430       8.29532054
Mo      -3.79414308      30.07539382       8.31370762
Mo      -0.65102099      31.76648565       8.31239962
Mo     -10.24436079      23.29282833       8.28456148
Mo      -7.09388521      24.90767672       8.31945164
Mo      -3.95511119      26.55968683       8.34191070
Mo      -0.82495900      28.24090618       8.34288207
Mo       2.30430130      29.93303666       8.32422105
Mo       5.43875847      31.61665975       8.28443674
Mo     -10.37025120      19.81793056       8.29563229
Mo      -7.21900164      21.42032377       8.32403167
Mo      -4.08249880      23.05335943       8.35333694
Mo      -0.96170116      24.71786530       8.36463799
Mo       2.15022020      26.40026324       8.35347944
Mo       5.26184632      28.08084232       8.31937737
Mo       8.38175223      29.73993091       8.25618403
Mo      11.51516431      31.36519584       8.17011245
Mo      -7.32919627      17.94427935       8.31238132
Mo      -4.18895486      19.55652348       8.34291169
Mo      -1.06950264      21.19959839       8.36467739
Mo       2.03127580      22.86529922       8.36469592
Mo       5.12295514      24.53660691       8.34198782
Mo       8.21617937      26.19567638       8.29440314
Mo      11.32198752      27.82773489       8.21891600
Mo      14.44790400      29.42750561       8.13245222
Mo      17.59506278      31.00226799       8.06562705
Mo      -7.44002634      14.47229476       8.28843495
Mo      -4.29323546      16.06796798       8.31366251
Mo      -1.16793139      17.68639784       8.34201622
Mo       1.93235679      19.32906010       8.35344718
Mo       5.01387521      20.98523525       8.34287705
Mo       8.08711910      22.63911743       8.31354145
Mo      11.16562125      24.27643541       8.26329406
Mo      14.26286250      25.88852491       8.19513182
Mo      17.38529851      27.47672025       8.12801589
Mo      20.53192387      29.04651399       8.09037087
Mo      -4.41450112      12.58308583       8.26345635
Mo      -1.27771143      14.17795482       8.29444345
Mo       1.83197675      15.79404736       8.31922422
Mo       4.91478478      17.42920199       8.32403079
Mo       7.98016403      19.07170480       8.31227130
Mo      11.04235315      20.71165937       8.28824872
Mo      14.11482333      22.33775389       8.25026537
Mo      17.21051387      23.94486469       8.20223546
Mo      20.33453201      25.53080215       8.16147165
Mo      23.48422021      27.10351474       8.15035309
Mo      -4.56712203       9.09451868       8.19505652
Mo      -1.41730857      10.67212242       8.21891306
Mo       1.70884696      12.26249620       8.25597042
Mo       4.80564656      13.87291426       8.28402158
Mo       7.87801196      15.50121760       8.29554963
Mo      10.93720183      17.13964853       8.29534124
Mo      13.99772947      18.77820044       8.28549326
Mo      17.07345677      20.40669932       8.26402617
Mo      20.17603129      22.01580879       8.23455172
Mo      23.30758710      23.60435053       8.21401565
Mo      -1.59501150       7.16489659       8.13218263
Mo       1.54956967       8.73620370       8.17016090
Mo       4.66907079      10.32425601       8.22047853
Mo       7.76087759      11.93539152       8.26294801
Mo      10.83234053      13.56927936       8.28926522
Mo      13.89588852      15.21701999       8.30244144
Mo      16.96547323      16.86516021       8.30213624
Mo      20.05328343      18.49975388       8.28850510
Mo      23.16913926      20.11021326       8.26870515
Mo      26.31153200      21.70199155       8.26298563
Mo      -1.80491851       3.65155432       8.06403990
Mo       1.35259289       5.21429261       8.08943364
Mo       4.49538779       6.78654877       8.14630622
Mo       7.61472123       8.38283306       8.21324530
Mo      10.71050953      10.00991311       8.26877070
Mo      13.79074296      11.66161003       8.30338920
Mo      16.86798867      13.32488824       8.31884684
Mo      19.95365598      14.98225291       8.31757721
Mo      23.05957667      16.61704267       8.30320813
Mo      26.19085893      18.22527378       8.28897768
Mo       1.13028172       1.69307496       8.04233288
Mo       4.28904440       3.25897824       8.08963006
Mo       7.43249191       4.84512182       8.16143881
Mo      10.55644834       6.46502032       8.23456085
Mo      13.66324163       8.11676164       8.28841422
Mo      16.75949470       9.78930250       8.31754097
Mo      19.85567878      11.46378180       8.32630493
Mo      22.96135952      13.12056570       8.31871097
Mo      26.08607101      14.74836644       8.30219646
Mo      29.23045076      16.34942647       8.29507825
Mo     -15.79304209      34.12844287       8.07385560
Mo       7.22150265       1.31737070       8.13245649
Mo      10.36850639       2.93222358       8.20346611
Mo      13.50143157       4.58270457       8.26387701
Mo      16.62283645       6.26001962       8.30184264
Mo      19.73769459       7.94581300       8.31867236
Mo      22.85385465       9.61965055       8.31752499
Mo      25.97861309      11.26594950       8.30202007
Mo      29.11919969      12.87957629       8.28527486
Mo      -9.69732826      33.79872445       8.19919515
Mo      13.30834717       1.05489901       8.25055240
Mo      16.44988983       2.73341783       8.28500887
Mo      19.58502429       4.42583287       8.30205798
Mo      22.71674013       6.11247810       8.30323856
Mo      25.85034595       7.77451627       8.28849495
Mo      28.99172157       9.40158854       8.26387635
Mo      32.14326617      10.99831581       8.25003761
Mo      -3.60263963      33.59833016       8.28851560
Mo      19.39935901       0.90223209       8.29480418
Mo      22.54387440       2.59659869       8.28899138
Mo      25.68723776       4.27081366       8.26869901
Mo      28.83395990       5.90993347       8.23415402
Mo      31.98722041       7.51347692       8.20153878
Mo       2.49233280      33.46321305       8.29594285
Mo      25.49465380       0.75362916       8.26276899
Mo      28.64420295       2.40333466       8.21270823
Mo      31.79875788       4.01461304       8.15907111
Mo      34.95828134       5.59592407       8.12613259
Mo       8.58023703      33.27271861       8.22083014
Mo      31.58621857       0.50017314       8.14475511
Mo      34.74396726       2.08519506       8.08475421
Mo      14.66353373      32.95571533       8.08841320
Mo      37.67893723       0.13354879       8.03926217
Mo      20.75553286      32.56444076       8.04476414
Mo     -15.57872307      31.13711937      15.58243912
Mo     -15.37185791      27.61522389      15.53558971
Mo     -12.43912996      29.55133822      15.52738492
Mo      -9.50445025      31.46016640      15.49711382
Mo     -12.25479686      26.01671623      15.48608470
Mo      -9.31496391      27.93079120      15.47314607
Mo      -6.36974261      29.80982441      15.45167142
Mo      -3.41672061      31.65779420      15.43384102
Mo     -12.10351802      22.46437822      15.44788275
Mo      -9.15690970      24.38641531      15.44580964
Mo      -6.20434331      26.27663987      15.43318391
Mo      -3.24210698      28.13339008      15.42238496
Mo      -0.27428671      29.96847266      15.42077822
Mo       2.69238979      31.79831364      15.42927160
Mo      -9.02846037      20.82409268      15.42911412
Mo      -6.07176680      22.72981682      15.42044749
Mo      -3.10212131      24.60256433      15.41032856
Mo      -0.12039335      26.44865874      15.40894933
Mo       2.86451799      28.28486083      15.42050497
Mo       5.84169299      30.12841401      15.44579100
Mo       8.80240213      31.99628892      15.48567135
Mo      -8.91654230      17.24948759      15.42310062
Mo      -5.96042307      19.16978209      15.42064191
Mo      -2.98908203      21.06292070      15.40890265
Mo       0.00001377      22.92766567      15.40296145
Mo       3.00160364      24.77673653      15.41029208
Mo       6.00249224      26.62628467      15.43307492
Mo       8.99024419      28.49315480      15.47262408
Mo      11.95569864      30.38888759      15.52590218
Mo      14.89885855      32.31508943      15.58011815
Mo      -5.85218977      15.60372955      15.43360427
Mo      -2.88725855      17.51712144      15.42224934
Mo       0.10058948      19.40370784      15.41025986
Mo       3.10952944      21.27140898      15.40883921
Mo       6.12939140      23.13251183      15.42221106
Mo       9.14503619      25.00294646      15.45127863
Mo      12.14152016      26.89276323      15.49588644
Mo      15.11022856      28.81022953      15.54971081
Mo      18.05330666      30.75092931      15.59661598
Mo      -5.73081790      12.04081037      15.46013785
Mo      -2.77525710      13.97031184      15.45124036
Mo       0.20189108      15.88009737      15.43294250
Mo       3.20728570      17.76832197      15.42030444
Mo       6.23474103      19.64477833      15.42052818
Mo       9.26891499      21.52151790      15.43352718
Mo      12.29383580      23.40810896      15.46009020
Mo      15.29324833      25.31390298      15.49994681
Mo      18.26061072      27.24261809      15.54544178
Mo      21.20243360      29.18881961      15.57859329
Mo      -2.63691417      10.43037258      15.49578888
Mo       0.32472491      12.35921220      15.47239886
Mo       3.31521690      14.26825173      15.44546604
Mo       6.33606148      16.16062904      15.42892517
Mo       9.37582965      18.04483070      15.42293971
Mo      12.41736571      19.92919703      15.42836741
Mo      15.44184210      21.82333932      15.44779700
Mo      18.43636225      23.73584443      15.48018553
Mo      21.39861717      25.67026187      15.51608964
Mo      -2.46071977       6.90076620      15.54969535
Mo       0.48367979       8.84328527      15.52580638
Mo       3.45244430      10.77035831      15.48538609
Mo       6.45319030      12.67749081      15.44754735
Mo       9.48222167      14.56863209      15.42065087
Mo      12.52430529      16.45059796      15.40547812
Mo      15.56060720      18.33320735      15.40523974
Mo      18.57541630      20.22736879      15.42148949
Mo      21.55895476      22.14377717      15.45137594
Mo      24.51508458      24.08018918      15.47815580
Mo       0.68026755       5.33146552      15.58047253
Mo       3.62679643       7.27171938      15.53478859
Mo       6.60029878       9.19124459      15.47818677
Mo       9.60393304      11.08811093      15.42945242
Mo      12.63047185      12.96718189      15.39568504
Mo      15.66353586      14.83797337      15.37926218
Mo      18.68603774      16.71367453      15.38142537
Mo      21.68487170      18.60902866      15.40099416
Mo      24.65607036      20.53041090      15.42946795
Mo       0.89982188       1.82123788      15.61639595
Mo       3.83232523       3.76817900      15.57917096
Mo       6.78152266       5.69727460      15.51660920
Mo       9.75521126       7.59926499      15.45139971
Mo      12.75344136       9.47557199      15.40085231
Mo      15.76858787      11.33573763      15.37161315
Mo      18.78436378      13.19423256      15.36243318
Mo      21.78826739      15.06771147      15.37163617
Mo      24.77016134      16.96974486      15.39566810
Mo      27.73113622      18.89550979      15.42050979
Mo       4.05421333       0.25991149      15.59846350
Mo       6.98879731       2.19374794      15.54699449
Mo       9.93770202       4.09898122      15.48060350
Mo      12.90660156       5.97350160      15.42137377
Mo      15.89421197       7.82611329      15.38123503
Mo      18.89297322       9.67099127      15.36236436
Mo      21.88983672      11.52669874      15.36235707
Mo      24.87376634      13.40759317      15.37916218
Mo      27.83995773      15.31992926      15.40531042
Mo     -12.64927773      33.07258349      15.55231437
Mo      10.14272057       0.58797483      15.50075979
Mo      13.09123853       2.46179699      15.44773206
Mo      16.05436234       4.30962632      15.40494652
Mo      19.02985837       6.14640843      15.37906101
Mo      22.01030504       7.98851081      15.37150327
Mo      24.98687131       9.85218743      15.38124271
Mo      27.95216221      11.74915470      15.40501850
Mo      30.90596179      13.67328096      15.42809092
Mo      -6.56292213      33.33422461      15.46078981
Mo      16.24377158       0.78951175      15.42802049
Mo      19.20283121       2.62141004      15.40516221
Mo      22.16648251       4.45506891      15.39547155
Mo      25.12880217       6.30741934      15.40075626
Mo      28.08508861       8.19116075      15.42123778
Mo      31.03404517      10.10697003      15.44750170
Mo      -0.45927102      33.48867771      15.42331551
Mo      22.35368139       0.92786790      15.42030782
Mo      25.30706615       2.77358055      15.42921387
Mo      28.25286195       4.64913162      15.45103478
Mo      31.19301525       6.55741093      15.47982407
Mo      34.13123490       8.49041540      15.49958458
Mo       5.65036136      33.64133458      15.44797981
Mo      28.45166870       1.12091136      15.47765326
Mo      31.38704851       3.02490701      15.51543635
Mo      34.31784368       4.95630827      15.54485442
Mo      11.74525936      33.89669851      15.53455402
Mo      34.53234885       1.43562194      15.57718351
Mo      37.45985219       3.38171555      15.59595454
Mo      17.82920887      34.26039665      15.61583759
Mo     -18.72876746      32.70202049      15.61722775
Mo     -17.63417016      30.96984546      22.57207429
Mo     -14.67183204      32.89186203      22.56149712
Mo     -14.49506883      29.36160858      22.53942112
Mo     -14.33085818      25.83183744      22.50084707
Mo     -11.53506578      31.27480115      22.52262587
Mo     -11.36764065      27.74349923      22.49788664
Mo     -11.21329198      24.21266304      22.46247177
Mo     -11.07314838      20.68164637      22.42915751
Mo      -8.57703603      33.17629175      22.48977595
Mo      -8.40854275      29.64667822      22.48001951
Mo      -8.25036246      26.11584678      22.45729535
Mo      -8.10526583      22.58515370      22.43235830
Mo      -7.96989476      19.05470538      22.41866109
Mo      -7.83799213      15.52517864      22.42448651
Mo      -5.45109909      31.53762549      22.45214272
Mo      -5.29003723      28.00915878      22.44289127
Mo      -5.13924224      24.48081161      22.42758405
Mo      -4.99989020      20.95356610      22.41849201
Mo      -4.86565131      17.42738155      22.42604494
Mo      -4.73071206      13.90191723      22.45167457
Mo      -4.58685509      10.37540219      22.48909011
Mo      -2.49165222      33.41700419      22.42484777
Mo      -2.33051090      29.89177254      22.42631740
Mo      -2.17435820      26.36722332      22.42001351
Mo      -2.02890565      22.84508229      22.41403414
Mo      -1.89138924      19.32492571      22.41985930
Mo      -1.75551011      15.80569142      22.44251774
Mo      -1.61439652      12.28615743      22.47941296
Mo      -1.46116380       8.76446450      22.52196483
Mo      -1.29326071       5.23947395      22.56083236
Mo       0.63090532      31.76644861      22.41879676
Mo       0.79036147      28.24492255      22.41853765
Mo       0.94297375      24.72623454      22.41404451
Mo       1.08616196      21.21194960      22.41398776
Mo       1.22470550      17.70046609      22.42734584
Mo       1.36425221      14.18863301      22.45683489
Mo       1.51330541      10.67515849      22.49729231
Mo       1.67565346       7.15773726      22.53883436
Mo       1.85239974       3.63513004      22.57144748
Mo       2.03751219       0.10717323      22.58402565
Mo       3.59148373      33.64046114      22.42918498
Mo       3.75603096      30.11842970      22.43226970
Mo       3.91472858      26.60197146      22.42746484
Mo       4.06596911      23.09110830      22.41986850
Mo       4.20974031      19.58476442      22.41839330
Mo       4.34938093      16.07965393      22.43204086
Mo       4.49390170      12.57428102      22.46200312
Mo       4.65043701       9.06485440      22.50032367
Mo       4.82009874       5.54984974      22.53610603
Mo       4.99996643       2.02806546      22.55924578
Mo       6.71950866      31.99629341      22.46228922
Mo       6.88628523      28.47876472      22.45704261
Mo       7.04580623      24.96841510      22.44260290
Mo       7.19640900      21.46406106      22.42600671
Mo       7.33919764      17.96208033      22.41849303
Mo       7.48179327      14.46114294      22.42886356
Mo       7.63089730      10.95761495      22.45537289
Mo       7.79260447       7.44980685      22.48831591
Mo       7.96528304       3.93490335      22.51573936
Mo       8.14404556       0.41243498      22.52857524
Mo       9.68052914      33.88656210      22.50056730
Mo       9.85450436      30.36459099      22.49746853
Mo      10.02322297      26.85038526      22.47952441
Mo      10.18207222      23.34367943      22.45170911
Mo      10.32990822      19.84104525      22.42444488
Mo      10.47333342      16.34058825      22.41111455
Mo      10.61767654      12.83955022      22.41744090
Mo      10.77010583       9.33603388      22.43914623
Mo      10.93413086       5.82690147      22.46466234
Mo      11.10608719       2.30972974      22.48353346
Mo      12.81950336      32.26393754      22.53896306
Mo      12.99641324      28.74396184      22.52208369
Mo      13.16414077      25.23155948      22.48914923
Mo      13.31910043      21.72467985      22.44916877
Mo      13.46426534      18.22108773      22.41488923
Mo      13.60607469      14.71886397      22.39749421
Mo      13.75203576      11.21495115      22.40033488
Mo      13.90717141       7.70753278      22.41730467
Mo      14.07027274       4.19358291      22.43625662
Mo      14.23816673       0.67282850      22.44891520
Mo      15.78176399      34.17828657      22.57168662
Mo      15.96514494      30.65190635      22.56101368
Mo      16.14057585      27.13252722      22.52870388
Mo      16.30268973      23.61872164      22.48362614
Mo      16.45206896      20.10968507      22.43647696
Mo      16.59324061      16.60201049      22.39963245
Mo      16.73400654      13.09359790      22.38184296
Mo      16.88181715       9.58353721      22.38484955
Mo      17.03740026       6.06970503      22.39935597
Mo      17.19973770       2.55037405      22.41451797
Mo      18.92938309      32.57351784      22.58439357
Mo      19.11166629      29.04756813      22.55948806
Mo      19.28047006      25.52619327      22.51582646
Mo      19.43458089      22.00907023      22.46472068
Mo      19.57675862      18.49400364      22.41747454
Mo      19.71411573      14.97987410      22.38500116
Mo      19.85573003      11.46409366      22.37422632
Mo      20.00538414       7.94580222      22.38169043
Mo      20.16184933       4.42429249      22.39716634
Mo      20.32374753       0.90037576      22.41069608
Mo      22.25156130      27.44245324      22.53624603
Mo      22.41078474      23.91823199      22.48837843
Mo      22.55556928      20.39648125      22.43922748
Mo      22.69182523      16.87462344      22.40037280
Mo      22.82779716      13.35285522      22.38183322
Mo      22.97124517       9.82886712      22.38486326
Mo      23.12333809       6.30270947      22.40016355
Mo      23.28358229       2.77594138      22.41713302
Mo      25.52949074      22.30432672      22.45536958
Mo      25.66598333      18.77673527      22.41737570
Mo      25.79931962      15.24905116      22.39735363
Mo      25.93655029      11.72052042      22.39943536
Mo      26.08327879       8.19074898      22.41717665
Mo      26.24149783       4.65972866      22.43885898
Mo      26.40676629       1.13028983      22.45490996
Mo      28.77015927      17.15120393      22.41088808
Mo      28.90326940      13.62074063      22.41458599
Mo      29.04490446      10.08893665      22.43613766
Mo      29.19853849       6.55631393      22.46431021
Mo      29.36381008       3.02422839      22.48784436
Mo      32.01004195      11.99467032      22.44879301
Mo      32.15848708       8.46375604      22.48321801
Mo      32.32150334       4.93115469      22.51525665
Mo      32.49546318       1.39993394      22.53551176
Mo      35.28255409       6.84722291      22.52820222
Mo      35.45543763       3.31660750      22.55881794
Mo      38.60010831       1.71156906      22.58368649
