Te Mo
 1.0000000000000000
    51.9331509618689324   -0.0000084947621110   -0.0001682204792290
   -25.9665803368153476   44.9754427885800681    0.0003679320444160
    -0.0000811777142180    0.0001555561426620   24.9634086402064916
 Te  Mo
 868 434
Cartesian
 -20.9626547627192288 42.9044876738410821  4.7701221065627424
 -17.8031429897001168 44.5059777667659944  4.8084097958917136
 -18.0025201153683270 40.9773044467357295  4.8263593709802919
 -14.8527040488473361 42.6048509804068942  4.8703304203172806
 -11.7151587197034832 44.2690281443625153  4.9094890756473264
 -18.1855297143528247 37.4661687620760020  4.8608900868805058
 -15.0334430610160599 39.0873703234529941  4.8944284955646697
 -11.8944747057368900 40.7415615904162962  4.9267313581563146
 -8.7613309520647960 42.4305686742254338  4.9472970089020194
 -5.6304622390637187 44.1453758473618336  4.9559049819858281
 -15.1894080858939819 35.5922047406108533  4.9231315908292270
 -12.0497534096961640 37.2355906900670135  4.9507613853405514
 -8.9210550766679919 38.9108102962078846  4.9682655868559964
 -5.7952188147294672 40.6159564462552609  4.9738343765588597
 -2.6665337031308320 42.3418496840853891  4.9692435029610671
  0.4633912858370190 44.0802960126911287  4.9630000547412649
 -15.3170083564458075 32.1146204079207038  4.9423601521496483
 -12.1765618677911451 33.7483465704876480  4.9662822682635319
 -9.0506044297719903 35.4105050396491023  4.9872124243875344
 -5.9324859058863391 37.1018783397935010  4.9949146803298703
 -2.8154896227211901 38.8165265281670955  4.9915594166009143
  0.3044267290702560 40.5463172679354784  4.9809004550765739
  3.4274182993415589 42.2803335367956308  4.9668377130112260
  6.5535158783283203 44.0072273385425774  4.9518829654761376
 -12.2774975009140466 30.2727714196910505  4.9704794231933072
 -9.1503768720928598 31.9218120859781394  4.9927118422817296
 -6.0382776759958219 33.5996235636180174  5.0070370936186253
 -2.9328707082829868 35.3025973704564464  5.0096205120801356
  0.1714174642809870 37.0224004032813525  5.0034409129368891
  3.2785632019735780 38.7487526755648375  4.9890429654519330
  6.3890591888363488 40.4717161639707470  4.9704883195692746
  9.5038867868176400 42.1830566305563508  4.9423269725830838
 12.6280142429014912 43.8726493053785873  4.8987654281046789
 -12.3629572539840371 26.8035959675598470  4.9668085912835913
 -9.2301323615605178 28.4404834573756027  4.9890205788070006
 -6.1176269046107024 30.1032094618399704  5.0081918357501340
 -3.0188478036814210 31.7935723011619231  5.0175064862528354
  0.0726665318856360 33.5031364740479631  5.0163142542496022
  3.1622807799352159 35.2218822502150815  5.0081893963638233
  6.2536105258138903 36.9390237995771997  4.9926946365103078
  9.3485161398676659 38.6464874884564580  4.9662538329188042
 12.4517133511585758 40.3337963796257384  4.9231039869932802
 15.5719957082442484 41.9916062357768212  4.8603207272378119
 18.7135247993081570 43.6185949393462664  4.7917884974150322
 -9.2997994868355569 24.9660205847629832  4.9808371679023686
 -6.1814772273672949 26.6127708291360854  5.0033843825535289
 -3.0843486789234040 28.2869131419443711  5.0163018982105214
 -0.0000389345531150 29.9836863107353118  5.0204334021899273
  3.0767910991359022 31.6930577206691559  5.0174965076242852
  6.1505884790611844 33.4049578678730086  5.0069865263536633
  9.2250254881482086 35.1082784191977169  4.9871515794114600
 12.3051766278946264 36.7930364854539818  4.9507094282452346
 15.4003256533264903 38.4510487232593334  4.8943208171718462
 18.5201322168842069 40.0772421306298057  4.8244821416948156
 21.6666408244860946 41.6782899781634129  4.7572065618464308
 24.8367865292440868 43.2658209285713440  4.7156782776108006
 -9.3693023689029662 21.4953162381644631  4.9691192465459810
 -6.2418025291700188 23.1289977940801847  4.9914644309710283
 -3.1399467155197298 24.7843101149208458  5.0095579792896059
 -0.0580783156242870 26.4643546032690331  5.0174927482561680
  3.0115234407013860 28.1609587522870370  5.0162838676517962
  6.0727073159476914 29.8640940340313854  5.0095483731314960
  9.1307416139855704 31.5621958205441473  4.9948320278679290
 12.1916028743672360 33.2459323957998762  4.9681743164337346
 15.2637478360589380 34.9056184502720015  4.9267031135946624
 18.3563036475949097 36.5355469290915451  4.8697257677700820
 21.4781200127622576 38.1396399404803432  4.8067371663244014
 24.6301658051271737 39.7272860264406091  4.7559300631647838
 27.8014555431751766 41.3113185408423860  4.7378157063836763
 -6.3102740673773328 19.6487645563939175  4.9737031972606589
 -3.1983613910908280 21.2869100581775008  4.9948038464959819
 -0.1124617600290710 22.9464311818732831  5.0069424001423801
  2.9552273264415190 24.6259220377213452  5.0081403679469663
  6.0099585646085023 26.3158148883662122  5.0033445385845283
  9.0571609019139601 28.0054870449377482  4.9914396737693476
 12.1053855612608725 29.6863131455268814  4.9737022128061934
 15.1599562556617382 31.3477226973968151  4.9471449056336469
 18.2290039714454366 32.9865503226698991  4.9094117125608898
 21.3229041903323520 34.6013481700965073  4.8638289876642196
 24.4480520036418056 36.1968107955371039  4.8177767351163370
 27.6014583092833696 37.7836041704215404  4.7903346363046504
 -21.1654268066689824 39.3740528425977914  4.7934355777871351
 -6.3987316691582334 16.1726909539316921  4.9471224317219216
 -3.2706888262599119 17.7942542978078677  4.9681327077395387
 -0.1745380108976580 19.4322125969672115  4.9870955652242914
  2.8966499067771792 21.0901371209142461  4.9926069769302330
  5.9514050839671757 22.7617519834067856  4.9889278325524211
  8.9952307514375001 24.4386644247097848  4.9807547884142176
 12.0356992420697644 26.1138331836282980  4.9690625755456068
 15.0795651964467563 27.7788989564152473  4.9557194492395693
 18.1322131326829030 29.4287128478885549  4.9375698400073711
 21.2046707325655994 31.0596569285380895  4.9126344887216478
 24.3025041089079572 32.6722122987016803  4.8820532906599947
 27.4320105869977944 34.2703989664272228  4.8533873816639748
 30.5866363351119723 35.8638417926378992  4.8438182330196540
 -3.3693968306855009 14.3038595335303604  4.9266508655192380
 -0.2555507315801270 15.9223346876699203  4.9506465261913624
  2.8278952324303761 17.5561334764222003  4.9661402376438746
  5.8883061224638746 19.2065332337986874  4.9703464996484943
  8.9354625693978065 20.8670749116165339  4.9666794381677519
 11.9762721427547412 22.5339880375360657  4.9628189004817314
 15.0149140476484195 24.2011255990071561  4.9592182204913584
 18.0588749817377980 25.8613328582692112  4.9547136527747906
 21.1160822674165765 27.5115583721264265  4.9467846175093673
 24.1933953553031316 29.1486123168697020  4.9326242262400646
 27.2992613817719629 30.7660711800105666  4.9109080815482882
 30.4356436934797614 32.3712049618275870  4.8958056709314528
 -18.3422942424144821 33.9755015777301139  4.8987645137079561
 -3.5041214148424911 10.8106100937054244  4.8696517042748901
 -0.3672754582643560 12.4128612948020667  4.8942118245178454
  2.7375605499688089 14.0250743169800671  4.9229871413709292
  5.8129739257034743 15.6533199576921724  4.9421889599797266
  8.8679195239646731 17.2963263392594939  4.9517005105199079
 11.9145620322213333 18.9532963076594356  4.9565475293616927
 14.9560793178536482 20.6206259915174712  4.9617567356265333
 17.9982794789522593 22.2910276306931259  4.9667531563485836
 21.0481586553505089 23.9604918019105853  4.9686291535880320
 24.1136822333769629 25.6211164758984218  4.9654829922585018
 27.2014281982615280 27.2637977808715846  4.9539312589127968
 30.3194320550854073 28.8863077742692766  4.9361949465214456
 33.4631743638046615 30.5007290340120036  4.9294952446470193
 -0.5188796010610690  8.8979382682539008  4.8243706208832631
  2.6131062264801779 10.4939295320228805  4.8601477802241391
  5.7141220422341963 12.1029899187281966  4.8985802851426099
  8.7871336364474590 13.7296693163487120  4.9294714403513762
 11.8441059814228140 15.3795832625038660  4.9502139902252873
 14.8929052903485228 17.0460492412509481  4.9648894203383360
 17.9405191780698310 18.7247353604388067  4.9750015817257456
 20.9910245813292526 20.4094818991768570  4.9824782471145816
 24.0516451563881972 22.0902347810556066  4.9850647648496373
 27.1288960886343595 23.7577072758841190  4.9797630705299376
 30.2317749730772647 25.4018826231458021  4.9645413222257657
 33.3635141240974704 27.0283483657965640  4.9501995658443798
 -15.4215678279078858 28.6474510828003623  4.9518636427910918
 -0.7055082846143830  5.3725206901956160  4.7570897843901214
  2.4513196786781930  6.9597741851622823  4.7915880401662907
  5.5810488036647872  8.5573377621857656  4.8435734956799967
  8.6810159932099520 10.1725567994483566  4.8957328684630737
 11.7571020247426397 11.8143177106662716  4.9361783925495262
 14.8185317168508490 13.4806346551295722  4.9645191381016716
 17.8747163333254804 15.1655868278833523  4.9814423093312596
 20.9329887066084837 16.8608903618983597  4.9909963738706509
 23.9956497420520094 18.5586688649555889  4.9952260425183281
 27.0698473867462930 20.2463662185800182  4.9928718573792166
 30.1628910217647608 21.9126784989927295  4.9814479617065563
 33.2823541567889123 23.5547667947814929  4.9648820211889708
 36.4232326441474683 25.1804839013867756  4.9565156761688023
  2.2564443894207078  3.4204203813837988  4.7368566785019768
  5.4109865783886910  5.0119164905654747  4.7897013389141971
  8.5380830010646083  6.6216973586241332  4.8532669480956043
 11.6392626075208092  8.2589147575949280  4.9108371898000902
 14.7212611986342896  9.9253139427982937  4.9538628832817606
 17.7938856584063743 11.6155414558810950  4.9797166161731417
 20.8643348250613130 13.3200914210457544  4.9928512994844638
 23.9366690982882346 15.0280751125039114  4.9991090646151433
 27.0128163659860689 16.7316444821308359  4.9991060426103777
 30.1019357882321188 18.4165051298028359  4.9909673175181322
 33.2123322213890333 20.0761308239164435  4.9749674791154863
 36.3464002941011799 21.7128109396876390  4.9616931512463971
 -12.4398013746801315 23.3367028826842144  4.9629026123452471
  5.2125076316210004  1.4664899323875640  4.7577318220962272
  8.3613316679809362  3.0737070684531660  4.8182925589579186
 11.4868475449970049  4.7105207883231817  4.8818761500677406
 14.5930151446182972  6.3778876766771546  4.9324957168290524
 17.6877650104376727  8.0725760110840703  4.9654041397621924
 20.7765804677530994  9.7843029255814393  4.9849977665248968
 23.8630177552580669 11.5016078174853789  4.9951788188764841
 26.9500876246402896 13.2158249673252044  4.9990796629960883
 30.0409144900438321 14.9152727620356700  4.9951807373092736
 33.1460868363013361 16.5919247600156048  4.9824172197172851
 36.2719285616612552 18.2429766692003881  4.9666917884250941
 39.4178061857943618 19.8716020589221856  4.9591185560802566
 11.3058818450757368  1.1654423244835741  4.8636567756177156
 14.4323450763005088  2.8340687817560850  4.9124356020143347
 17.5493981501955645  4.5313769939582587  4.9466459249470383
 20.6586748956073656  6.2480850053824772  4.9685351121826908
 23.7625263219771945  7.9741617775713731  4.9823892878285934
 26.8646717345548360  9.6981541144549670  4.9909146636583293
 29.9654156644975131 11.4090802091482892  4.9928084849599834
 33.0713467954407037 13.1009746356707790  4.9849817752060339
 36.1927964253894032 14.7669808015967110  4.9685417234072293
 39.3336036614802893 16.4053377670494420  4.9545937322426852
 -9.4492457565236432 18.0267163922831202  4.9557429257314363
 17.3810057170704084  0.9886867660758319  4.9373801713138272
 20.5071214859787361  2.7088752991552161  4.9545849341791497
 23.6293874448068237  4.4415386031787332  4.9666451940168264
 26.7467653956188762  6.1746618349165274  4.9749156024071608
 29.8619729646919971  7.8972778228204596  4.9813545792748499
 32.9768057402990067  9.6022734246573673  4.9796466597615359
 36.0981655865880668 11.2818568014340492  4.9653527506935013
 39.2341390889288206 12.9325981617984613  4.9466284121862234
 42.3863843109682961 14.5581169711099676  4.9374015445581563
 23.4668650935514975  0.9028331238879140  4.9590643575510551
 26.5971288588756245  2.6421408043696082  4.9615966827537310
 29.7243687253267765  4.3747106818704067  4.9647730922781337
 32.8492727479132540  6.0930111799393529  4.9644199189226317
 35.9769062243045994  7.7864177099366083  4.9537839698859774
 39.1132041155038266  9.4490406850067572  4.9324578199815798
 42.2626021336097182 11.0818224576676396  4.9124467389096438
 -6.5139799858217664 12.6953882355828878  4.9093608329310872
 29.5617923623453080  0.8417624922362080  4.9563754622410618
 32.6919755278220663  2.5676329227468040  4.9500561528314941
 35.8230543939472170  4.2748796504329754  4.9360411959901356
 38.9610642583279088  5.9505350482409538  4.9107464790934614
 42.1101913086555086  7.5927545638826324  4.8818592620057579
 45.2706700297374809  9.2085731821391601  4.8636163156767402
 35.6493178495779262  0.7451304432122799  4.9293230146782374
 38.7829196771185494  2.4317848356775689  4.8956174261934882
 41.9294625646505565  4.0834046457557509  4.8531640362329318
 45.0898129794226108  5.7044114301456093  4.8175023883308468
 -3.6758859467768672  7.3049787198845673  4.8066369912324802
 41.7318126092374158  0.5547636894467990  4.8434548172521259
 44.8870812434534798  2.1802622277644019  4.7893955444686700
 48.0562221038363688  3.7815736177721320  4.7555536077215139
 47.8426741216489262  0.2438949775812650  4.7357576010554494
 -0.9153277752894430  1.8338896610659470  4.7148536723508983
 -23.9201410228929348 44.8516018730022310  4.7173438069171789
 -21.0148264548988095 42.9157448991366550  8.3799647328601381
 -17.8609550743913026 44.5017694086090216  8.4291852800343072
 -18.0656429844456454 40.9953177179377377  8.4478296544851190
 -14.9087075346256626 42.6097443779320457  8.4915609161600312
 -11.7536532542068404 44.2651099664690406  8.5313823645967197
 -18.2471408742699239 37.4981788674652208  8.4830183318358099
 -15.0931110456185156 39.1047795185585656  8.5186081863208454
 -11.9386133751770327 40.7527540632590757  8.5501196064691563
 -8.7874405064533150 42.4379756871969533  8.5685914960402254
 -5.6390634089173286 44.1503684679559001  8.5754282326994300
 -15.2434698462530172 35.6091942443855771  8.5465894484186258
 -12.0959571064096476 37.2469010632805535  8.5763278890299368
 -8.9516361453472637 38.9237097763435429  8.5931000597952778
 -5.8111161765769017 40.6310658380706400  8.5954140398565926
 -2.6713005125990978 42.3567182476943529  8.5894529944112978
  0.4670777704795910 44.0910819016152189  8.5815165098731221
 -15.3578981547266160 32.1259104443141652  8.5644043480613021
 -12.2149919415731407 33.7500944786867052  8.5917071418427113
 -9.0804005547295894 35.4142565725821470  8.6120624511707611
 -5.9518418121597412 37.1133618405520807  8.6192994442841329
 -2.8263524187901492 38.8356500534892248  8.6142837057551134
  0.3011405829898200 40.5687321210010552  8.6025380041704285
  3.4322894494845428 42.3009221033945551  8.5879312872424123
  6.5723186548998704 44.0254095331731534  8.5722169325511306
 -12.3065739254580926 30.2669189639706246  8.5932545238865430
 -9.1752813711590431 31.9140751820369459  8.6172933422370619
 -6.0555714900721460 33.5993786956458536  8.6313675107831358
 -2.9440950402108070 35.3120326736450920  8.6337536326965907
  0.1651089931775680 37.0407343397268107  8.6264242239508722
  3.2776061733373689 38.7736477412478493  8.6125118497789668
  6.3985634535417573 40.4998132425304220  8.5932747348773564
  9.5341413144519116 42.2128406728120780  8.5644029155515042
 12.6815648029811623 43.8987425392111774  8.5214902128800905
 -12.3832262425811397 26.7974661958850753  8.5878921547862106
 -9.2511996866181061 28.4271929086223913  8.6124949704925964
 -6.1320654276465847 30.0937743778787308  8.6323544412622955
 -3.0271543335206839 31.7924755889239172  8.6408749249943195
  0.0683776566223870 33.5113312652755653  8.6403262750171947
  3.1613549850978901 35.2391098157073728  8.6323550864890635
  6.2594068434902717 36.9644455049746554  8.6172774763552145
  9.3692837047838449 38.6789053232836153  8.5916618695083500
 12.4936055362459726 40.3721079170339792  8.5465105719752543
 15.6316867812236477 42.0288495692565647  8.4828165837154827
 18.7753585019357097 43.6440398985306075  8.4115481179045428
 -9.3175283035305760 24.9519155058758457  8.6024797154588111
 -6.1941995066686282 26.5981259469280076  8.6263801877767836
 -3.0893032825361040 28.2790781402273588  8.6403165678974769
 -0.0000466807301700 29.9836932067040394  8.6448707171013410
  3.0800204293538060 31.7008005525009899  8.6408500656969274
  6.1590202101241278 33.4200469998190215  8.6313155433774771
  9.2431824112149918 35.1321914567236036  8.6120011629656972
 12.3380809544304757 36.8274272690120128  8.5763214035399269
 15.4459606050073877 38.4942215060728401  8.5183403320281830
 18.5705247119260051 40.1232461736660042  8.4454499123469891
 21.7060399603753389 41.7168314527899540  8.3761097862471683
 24.8456556343552215 43.2874304388206355  8.3331635490551790
 -9.3797782441371460 21.4837416063851911  8.5893445672529456
 -6.2529183663558303 23.1100200512730076  8.6141941816177550
 -3.1424929118264902 24.7698420385157192  8.6336969380931485
 -0.0529635291264240 26.4576832505266069  8.6408414067473291
  3.0207828679558748 28.1605837513311243  8.6402941896914491
  6.0864955300327237 29.8691112686884210  8.6336815824920468
  9.1503852026620081 31.5732026701046493  8.6192033466499787
 12.2180800328046306 33.2659351716270990  8.5930063825677951
 15.2955792008571052 34.9382252509945204  8.5500393585325476
 18.3888986754972983 36.5821010513011871  8.4913662375285419
 21.5028415060251525 38.1945239371507270  8.4264282819197565
 24.6326758731601103 39.7793610898159500  8.3740597829529300
 27.7709724772325437 41.3477259956890890  8.3570512819500156
 -6.3154191337966603 19.6274134188798257  8.5952596316797241
 -3.1986367322131799 21.2644047592769390  8.6191912289943442
 -0.1035705501427540 22.9315516270939881  8.6312765562722120
  2.9706279496251389 24.6180852343401639  8.6322769591662549
  6.0290069462361542 26.3121034320057738  8.6263385261794774
  9.0791705647705605 28.0053314500011048  8.6141791464289454
 12.1264272059233260 29.6925137124913441  8.5952666759779621
 15.1794299993218189 31.3665941716952794  8.5684734885620486
 18.2448554860771566 33.0218919239877948  8.5312502352415560
 21.3310130378324487 34.6539599968307570  8.4851694994548108
 24.4418859604592669 36.2596361856056362  8.4385698701856473
 27.5722071523194501 37.8419207714629522  8.4086053915530279
 -21.2176732437029543 39.4120347494877237  8.4139880674239080
 -6.3920986484607161 16.1463891807781863  8.5684344341987284
 -3.2665774997174188 17.7613236440457918  8.5929605443690544
 -0.1628801942368660 19.4045218997301880  8.6119378915925875
  2.9157917543775849 21.0724251313763702  8.6171858124475591
  5.9735076324622733 22.7501376126596746  8.6124020674107431
  9.0163156463886587 24.4303066341553432  8.6023756098172690
 12.0509905289606305 26.1105115082722605  8.5892801655930420
 15.0882060979291737 27.7838306567905704  8.5752429346390500
 18.1337135634608124 29.4476024364521578  8.5571659717060644
 21.1974406715391233 31.0972106831561739  8.5344191236703235
 24.2878175167031998 32.7277937911369676  8.5033116223146354
 27.4041636294536168 34.3311870797793759  8.4751501220314083
 30.5395813047450240 35.9146536391902629  8.4650904385594394
 -3.3570687940722679 14.2599535711117724  8.5499982529865708
 -0.2422093998132040 15.8766307900223147  8.5762438268003951
  2.8456018930149800 17.5219566456683573  8.5915600297427286
  5.9079136509434598 19.1842281870363820  8.5931359030565062
  8.9508607166427332 20.8525403811962846  8.5877745988901850
 11.9837769905615623 22.5254358048889252  8.5813497650840205
 15.0133672915406446 24.1991377857629288  8.5774801338297841
 18.0492596568645034 25.8704385882999368  8.5736128030296541
 21.1011207166305503 27.5343653836101048  8.5673701991978817
 24.1754598995049825 29.1862644542786889  8.5548929226021784
 27.2765190147663219 30.8161891865097282  8.5337474543337457
 30.4009145647431644 32.4183884161644684  8.5169468266336175
 -18.3916445575562584 34.0086408850743211  8.5215016204095821
 -3.4800779505743318 10.7590993902882808  8.4912792974671287
 -0.3526861126433670 12.3517436147071109  8.5182429446261843
  2.7498143460084741 13.9696190265920670  8.5464127395602922
  5.8236867634085092 15.6122376826617071  8.5642594340484113
  8.8742901303930850 17.2709605335822296  8.5720417430635667
 11.9127358147728941 18.9400745282091520  8.5759306923554650
 14.9462459510999306 20.6151761605163948  8.5803910687209566
 17.9822940563620506 22.2935135820892896  8.5856341545272699
 21.0299558151687975 23.9720903247694821  8.5888160517918255
 24.0958256263521946 25.6433669689261059  8.5868149290607967
 27.1862448311453058 27.2978838672933755  8.5755223741804532
 30.3003447475145329 28.9234858322575086  8.5573151136852363
 33.4327744936556854 30.5266673995734479  8.5503197732134115
 -0.5042043838172090  8.8312818896585537  8.4452908149704058
  2.6155630405191230 10.4235980851888783  8.4826529815872522
  5.7099795099182664 12.0435163565876593  8.5213112001085438
  8.7798449653247150 13.6903684807549375  8.5503124389422407
 11.8322106574094885 15.3577485758285679  8.5694639465461506
 14.8773154411224233 17.0364491595228245  8.5840352102068405
 17.9233673723587188 18.7231082824428903  8.5947625276366111
 20.9742687594085062 20.4138111024424269  8.6031962156970270
 24.0372219756227530 22.1024824986940480  8.6056915214668201
 27.1199132607831253 23.7782382703722099  8.6004901918646812
 30.2253540982446900 25.4281286779721185  8.5852996599116871
 33.3505883728407468 27.0495445077755114  8.5694582855584525
 -15.4467082215578309 28.6546110633815232  8.5722040457672346
 -0.6920500455048030  5.3189794443241372  8.3759758744960973
  2.4425025475024662  6.8936651762776728  8.4114422419671637
  5.5599794112353704  8.4906815379242531  8.4647658946027686
  8.6574650351403744 10.1188007729701788  8.5169352524606765
 11.7344527537263783 11.7791786140147980  8.5572755702455865
 14.7990229998901519 13.4619193055272746  8.5852655563043765
 17.8587489900198264 15.1585393524525234  8.6020973111358678
 20.9203370765498029 16.8607351433945354  8.6113819463617993
 23.9868435187387377 18.5633615805132308  8.6158948200263783
 27.0662483868690735 20.2573050814600499  8.6136502646363962
 30.1648096173311799 21.9300146061587959  8.6021045785331189
 33.2818405599759473 23.5730625316155056  8.5840220975469492
 36.4127305815772289 25.1886979140388902  8.5758952348183151
  2.2377880556950398  3.3782945175411050  8.3551303537850199
  5.3749155971673597  4.9583257997844354  8.4087390876729238
  8.4993587505206865  6.5672648190924949  8.4750362789610048
 11.6072731297947680  8.2141577349618977  8.5336939190085133
 14.6993587439100466  9.8950970417801418  8.5754587004116729
 17.7806073627598806 11.5974844930717840  8.6004441870387627
 20.8566711630252541 13.3115003464445021  8.6136247754036894
 23.9323744811760264 15.0263841106707297  8.6195874024932468
 27.0135367886317255 16.7362017150704787  8.6195890236178112
 30.1081464238412195 18.4275213000759805  8.6113596809529014
 33.2195084738607633 20.0917719087038975  8.5947157161609322
 36.3466514584499336 21.7240241240230532  8.5803515926165801
 -12.4509723352530823 23.3344706542548721  8.5814251891903464
  5.1672836959039721  1.4461734270905580  8.3768088148947015
  8.3106839226101616  3.0382249928378711  8.4385719714311858
 11.4462019803783246  4.6700695911546450  8.5031972262678064
 14.5693264082155736  6.3434849909366537  8.5547644975602939
 17.6773943379585283  8.0459891511580395  8.5867299987448487
 20.7732007347491923  9.7656792527394440  8.6056316994023572
 23.8633633523501913 11.4916092845662945  8.6158420720285100
 26.9537074065518532 13.2129128030929319  8.6195675556758822
 30.0494071496742627 14.9205408960005652  8.6158439370725670
 33.1582302079677049 16.6042582868749555  8.6031357693434529
 36.2821041755323392 18.2555754383812463  8.5855627715697320
 39.4168761685316085 19.8739335440159941  8.5773778925143578
 11.2568013439922634  1.1465630096104520  8.4852178331317099
 14.4034482087707225  2.8090072555389920  8.5342219271148423
 17.5370959671076143  4.5069878780877861  8.5672340608459887
 20.6577153343981870  6.2264970346799826  8.5887380321357814
 23.7671029433965977  7.9574372447513726  8.6031144849261683
 26.8711329854903376  9.6872481717509196  8.6113147533746250
 29.9767156610900791 11.4067452700081908  8.6135847340801615
 33.0891855136765329 13.1073363232203643  8.6056100221829439
 36.2119650307361454 14.7769172009647018  8.5887199511343386
 39.3463310949852385 16.4090854919551781  8.5734922715588056
 -9.4492563679063135 18.0167435116306116  8.5752562608910150
 17.3638983212940659  0.9805246077966741  8.5569878742156824
 20.5040357625427596  2.6959713946874300  8.5734790360480897
 23.6352431307803386  4.4264411321256327  8.5855263893209131
 26.7567433767382141  6.1606323907152118  8.5946366964718628
 29.8760615276689947  7.8869268154035668  8.6020195970671711
 32.9991142471751218  9.5997743553131816  8.6003828104142315
 36.1263891425314441 11.2861602440040070  8.5866682826234157
 39.2613969721081091 12.9341280955393358  8.5672123293237696
 42.4020024118726937 14.5473661010202076  8.5570043619510177
 23.4694039661323046  0.9024812969757120  8.5773191278385088
 26.6067553178889717  2.6363180891758788  8.5802423468069104
 29.7404630549179529  4.3660030500756317  8.5839328614003634
 32.8752469867358670  6.0854492240103646  8.5851825781393440
 36.0140264182780001  7.7825077648543157  8.5753676419293203
 39.1548118393510194  9.4457139698460075  8.5547222151196660
 42.2987726216352442 11.0693146989467746  8.5342104651315491
 -6.4913011004428673 12.6639807767033243  8.5311870272721055
 29.5741878842966308  0.8467676297278450  8.5757547187089944
 32.7168190607275875  2.5681858631425261  8.5693301956408394
 35.8648132748474637  4.2728145969549312  8.5571514770529262
 39.0158852335143749  5.9451693053857371  8.5335554819907653
 42.1657081647327416  7.5776941574437950  8.5030949084426268
 45.3121907187846489  9.1752222820901626  8.4849487266606509
 35.6870020774576417  0.7584531050261391  8.5501484959445300
 38.8412674104466049  2.4382638526517861  8.5168069814810874
 41.9961938457696178  4.0770716649784324  8.4748454138022691
 45.1472768719887014  5.6781996515180619  8.4382752430473236
 -3.6407159004760339  7.2559975255060492  8.4263552779263904
 41.8001779995048750  0.5698639028467000  8.4646240738469469
 44.9525521637792949  2.1760346446052901  8.4081071660975777
 48.0997866442548982  3.7526474019184470  8.3734135983485736
 47.8886950076432214  0.2495121491692230  8.3546502028806486
 -0.9028071550067530  1.8143889216714191  8.3331518282388934
 -23.9474316136574146 44.8504051582768426  8.3363072590095744
 -20.8001310815619327 43.5321041683910863 12.2805703710929741
 -20.5916424605717445 40.0179897066716066 12.2457638678479146
 -17.6562193769035396 41.9383467366637461 12.2162375734075717
 -14.7100249571118358 43.8300185024657694 12.1689729568509826
 -17.4669609598910007 38.4079604248781195 12.1791102281346006
 -14.5201454769067890 40.3058601390050271 12.1496427052896170
 -11.5633535475799434 42.1670256804112142 12.1201257242046108
 -8.6021484334658851 43.9956587613381060 12.0970120600221520
 -17.3088402408949165 34.8561181303321419 12.1371378395021186
 -14.3580339331425151 36.7614246920265586 12.1202594139769371
 -11.3972717961729995 38.6327636771106668 12.0992482925034128
 -8.4285662367244534 40.4693615661425241 12.0865753937458518
 -5.4614942465897771 42.2794558273634209 12.0825644789840787
 -2.4977376684138641 44.0728595500337192 12.0796834305938514
 -14.2313766635030703 33.1967142898291740 12.0982454425017654
 -11.2662307498059775 35.0804572368430598 12.0797759221391559
 -8.2889113059978428 36.9297730273875402 12.0672072412436791
 -5.3083027007926784 38.7494100071538412 12.0656231091507795
 -2.3318126232906340 40.5491682072049358 12.0710063888116075
  0.6391672244188770 42.3392471635074301 12.0759415958074356
  3.6073665472971088 44.1286675718112420 12.0789158391341545
 -14.1335894628673255 29.6188098288403800 12.0855055043708095
 -11.1674655290145708 31.5142387623295797 12.0708924015389751
 -8.1860093180735749 33.3779517660473886 12.0543798295140174
 -5.1937184353802541 35.2099692521970553 12.0486996492709491
 -2.2001761422857382 37.0180910603571718 12.0522628482065812
  0.7898430224895990 38.8150964103876035 12.0597119364035965
  3.7740123025296208 40.6094009399482232 12.0711294155507876
  6.7506498441395344 42.4061683840553485 12.0855429472921792
  9.7197206164233680 44.2161667935850247 12.1047759547733911
 -11.0892252133182456 27.9393048210895394 12.0710906293270792
 -8.1078811252339449 29.8170276904773282 12.0532601516044000
 -5.1100708083434627 31.6630306791601761 12.0413747079384699
 -2.1039573947902341 33.4828081558490780 12.0393887117054899
  0.9034303922534270 35.2883354598446957 12.0438396154152620
  3.9094996605969770 37.0886183285933981 12.0532724555520954
  6.9091099354870114 38.8896985294578315 12.0708938564791239
  9.8981186293175920 40.7018957900189946 12.0982388088990778
 12.8739363839752947 42.5373526004081057 12.1371072244375835
 15.8333182457867689 44.4055988984225465 12.1896170573382285
 -11.0198940741026270 24.3595280077139407 12.0758541375159769
 -8.0432247008009519 26.2520861344214502 12.0596624128143493
 -5.0457731485950950 28.1138261089388131 12.0438107221530295
 -2.0337402373625770 29.9477690436150681 12.0365731528471080
  0.9856512065295070 31.7628755863112673 12.0365777688231059
  4.0092844916182484 33.5694367157959519 12.0413558920491983
  7.0324399711028969 35.3758192816778205 12.0543408751458649
 10.0469157854662789 37.1921610179885462 12.0797186680651745
 13.0485871089424244 39.0292426824030798 12.1202105633436279
 16.0289453980934802 40.8983677871888816 12.1790422784210488
 18.9855146050856511 42.7995075624909305 12.2454663378511022
 21.9220316116733898 44.7258277103274722 12.2991710587317495
 -7.9841370692057190 22.6816334480622075 12.0709278086556981
 -4.9919519115190294 24.5611518794469355 12.0521924257782569
 -1.9784238689318880 26.4121265838362547 12.0393447610172242
  1.0479306975660920 28.2404740528871159 12.0365388961622557
  4.0822068213769054 30.0561830951762126 12.0393655552049044
  7.1228459015481222 31.8683913502628684 12.0486465195955414
 10.1598430255589722 33.6890308750759289 12.0671249577617257
 13.1888339485327517 35.5294565323103342 12.0991601166651588
 16.1991798088549395 37.3973965583396577 12.1495248841169090
 19.1808309476914687 39.2971363394183868 12.2159221992408966
 22.1331144379778912 41.2229969944401162 12.2799150170115077
 25.0649105193446289 43.1610925301574326 12.3195199665186159
 -7.9177946721925538 19.1061027345414196 12.0823850940799353
 -4.9372715409893706 21.0037899148249494 12.0655061830080683
 -1.9293056609531889 22.8727214096440257 12.0486243652312641
  1.1006056185503941 24.7186451465558399 12.0412928882934160
  4.1421399085008277 26.5489423977822341 12.0437790382254271
  7.1919338436668330 28.3718611138056218 12.0521832838763405
 10.2453866221559018 30.1979076438167482 12.0655265544379660
 13.2950577053881460 32.0401697799127447 12.0864734754030181
 16.3326390205851304 33.9061494677429209 12.1200006898783101
 19.3461769479505961 35.7997565043709756 12.1688001473882128
 22.3262850971913629 37.7193823156949435 12.2284368906665204
 25.2749234354826697 39.6561397229116039 12.2782455970101427
 -23.7280102529158583 41.5978299250719417 12.2995051042269630
 -4.8666672346523931 17.4415817486232712 12.0864238486036957
 -1.8710752625856539 19.3323008134301695 12.0670833818442009
  1.1534057633030250 21.1973293517312058 12.0542766608146774
  4.1982166248207244 23.0454506568614015 12.0531826818628662
  7.2531967177825409 24.8839192010414614 12.0596023938129076
 10.3157745218296668 26.7203370921282684 12.0708756318666754
 13.3790903358278150 28.5655621008212037 12.0823944383072082
 16.4357173532545637 30.4273670026314313 12.0968575470448467
 19.4761520191366024 32.3107230055866239 12.1228410371461894
 22.4871475361252635 34.2176643504349869 12.1631514215149750
 25.4628839660742798 36.1446593964559568 12.2093660299924895
 28.4091972389638521 38.0820509242648271 12.2435764165490859
 -4.7694842413170768 13.8779518409620515 12.1199276476799422
 -1.7917536383227439 15.7889032203130633 12.0990784387813708
  1.2191477767601280 17.6785533049246162 12.0796172215650373
  4.2581788845087010 19.5471801548786814 12.0707833277893410
  7.3150231172777813 21.4023979414283936 12.0709960027002481
 10.3805385759995232 23.2523366246141627 12.0757968724754789
 13.4503429175667151 25.1021653093091004 12.0795029094978350
 16.5172991260764412 26.9578733939195985 12.0806543778316033
 19.5739186607994249 28.8275385530516353 12.0859220714176132
 22.6098343235738994 30.7161403821970289 12.1037202306594427
 25.6138068651200150 32.6245361948911565 12.1356406326135691
 28.5816196476287203 34.5515753770409688 12.1713342289970488
 -20.4065033683038060 36.4849279462510196 12.1896689775863987
 -1.6792326224227481 12.2479014238186341 12.1494157068201023
  1.3092784633059631 14.1604769987202808 12.1200740373589522
  4.3330689304932033 16.0525228194535501 12.0980928696122678
  7.3827488491003219 17.9261683927764324 12.0853805634567326
 10.4461089814769235 19.7870878859128787 12.0787230714608729
 13.5153055302657545 21.6422761137124162 12.0736650860297008
 16.5864611175235659 23.4923061881328579 12.0670855387131990
 19.6515368245169242 25.3475168666652912 12.0600749874290756
 22.6997821834471125 27.2140920880603261 12.0611547888808772
 25.7246159621551200 29.0989629163333134 12.0772972381199395
 28.7169048571462788 31.0065130638147437 12.1069692619201810
 31.6773477295270141 32.9315800273754888 12.1330818700030942
 -1.5248263486536060  8.7158466733113311 12.2157735954869615
  1.4377979370356511 10.6448447129987311 12.1788951294796775
  4.4347061356944586 12.5576505482902459 12.1369278929516806
  7.4657150872969158 14.4498815027655958 12.1045949487158158
 10.5189195738958610 16.3212625272128449 12.0829945288616258
 13.5829539663726653 18.1785280586032947 12.0669121618782125
 16.6490031974771178 20.0240560881737473 12.0531494455260795
 19.7140555473624275 21.8656751918213139 12.0412783499023242
 22.7693671885642246 23.7111911585484769 12.0354676640396381
 25.8039855931957938 25.5717497264532234 12.0416444752251248
 28.8132649517125650 27.4541845159406073 12.0625344054977344
 31.7911600634421490 29.3639713527972397 12.0906547089782812
 -17.1856220407815492 31.2850817796721898 12.1047780424186140
  1.6059617061457070  7.1338005914744089 12.2453170574812962
  4.5729819417109718  9.0606138243619334 12.1894182513601983
  7.5748887917677683 10.9677703504692676 12.1330115207310225
 10.6076150781296903 12.8501833742459652 12.0906227170602438
 13.6588061667046343 14.7090916212838785 12.0609862203021780
 16.7145839580308362 16.5493430758469877 12.0420589943045364
 19.7720504679577438 18.3782945502313737 12.0284035712526460
 22.8245634885866941 20.2064396181257315 12.0207516301176689
 25.8645521190209990 22.0446097819455744 12.0226236701220177
 28.8832484127828621 23.9041622610866966 12.0369578631023355
 31.8754588394405829 25.7920957111147722 12.0610136702674247
 34.8415736994578324 27.7052010910858790 12.0829721396069694
  1.8059809046533359  3.6275258813102620 12.2990733352573240
  4.7485095230558203  5.5621378797614103 12.2435379905917667
  7.7197789413437574  7.4767707701110702 12.1712373256101785
 10.7222580468579043  9.3664969811722756 12.1068834163987855
 13.7504730554149290 11.2261001495817752 12.0624703013493129
 16.7899048590498836 13.0616948090410308 12.0369274827888120
 19.8331045735491500 14.8826272526957109 12.0214521532346783
 22.8772373152356643 16.6970848589927954 12.0137272536211395
 25.9143421793934010 18.5188371083677481 12.0127371770056186
 28.9385988334909037 20.3582226214380491 12.0214683020168405
 31.9412666108416765 22.2255715435854064 12.0420520805093734
 34.9180012141811176 24.1230603802242030 12.0668865603292446
 -14.0536564150817380 26.0354031855135162 12.0788376423434016
  4.9524615118985276  2.0607735882585030 12.2785364906009367
  7.8994546284008873  3.9793102458597911 12.2093200934668129
 10.8725368541124183  5.8700878115645398 12.1355221181507016
 13.8703803707356119  7.7288650375575090 12.0771823943410155
 16.8853639455130029  9.5612096809852805 12.0415652142989380
 19.9096563532620792 11.3772208380300661 12.0225624056584017
 22.9381594905170232 13.1832326981067460 12.0127018537132226
 25.9665170618723806 14.9918931393856045 12.0093152736347744
 28.9878984111624547 16.8146785175498010 12.0137109408275702
 31.9964536545210123 18.6632513946970811 12.0283678745131688
 34.9832486728442049 20.5450237776721600 12.0531054080543729
 37.9515091012182353 22.4497770501854532 12.0735911089227113
  8.1040024389228069  0.4757173945707230 12.2286260816208205
 11.0561736922334646  2.3657846925339490 12.1630260345349743
 14.0272655974436606  4.2227865488947591 12.1035562727964834
 17.0151646599259827  6.0517075646288134 12.0610509297922075
 20.0139560364552622  7.8634404850086757 12.0353817594423163
 23.0215958258033737  9.6636033386316971 12.0206862231242813
 26.0344211462254869 11.4638760906069574 12.0136876260358907
 29.0470213376638462 13.2735852555185811 12.0126884356288706
 32.0534316430713559 15.1056267930885149 12.0207038084453490
 35.0456103057768900 16.9698112203734830 12.0412051158147175
 38.0181386678899713 18.8650641597989654 12.0669758032158505
 -10.9527893685137503 20.7761022047345243 12.0795575616840765
 14.2131504476196113  0.7116530952803510 12.1226465931630489
 17.1807981582058460  2.5379140258303461 12.0857419692421981
 20.1557884128204208  4.3451830462060634 12.0599541462025126
 23.1399036283784731  6.1401883479147434 12.0411780144311464
 26.1310282971073029  7.9341114565576758 12.0283171121234727
 29.1278466008218722  9.7348241459150326 12.0213931401519503
 32.1253387709005125 11.5538194679007251 12.0225329702706247
 35.1162177676186786 13.4010507345386003 12.0353619578420101
 38.0922461979944131 15.2830251660933438 12.0599332196078883
 41.0539759608620543 17.1921795794311407 12.0805154782520354
 20.3282861470315375  0.8256204237318470 12.0804712075804961
 23.2949500118331656  2.6183198231549110 12.0669502675502578
 26.2673006800981312  4.4065918951324736 12.0530285435991971
 29.2436906347806911  6.2007299269401699 12.0419701720830545
 32.2264052169153317  8.0098041300555991 12.0368573464778983
 35.2102099821099799  9.8427279413943065 12.0415133695533036
 38.1846308682871580 11.7098670808780909 12.0610022001868931
 41.1448327445696904 13.6102291461366605 12.0857493883477805
 -7.8337394004733261 15.5280983554157270 12.0968303827324810
 26.4327389376595931  0.8836222541091400 12.0734984867119017
 29.3986011669871026  2.6740870135397472 12.0667976381403594
 32.3652801130427221  4.4744868393164108 12.0608877270040846
 35.3357977516453303  6.2953845685565533 12.0623778851419132
 38.3045422013169201  8.1478416724475000 12.0771226534340421
 41.2624724165023267 10.0367615019745831 12.1035086744407252
 44.2102654758904166 11.9532927983063910 12.1226364475807458
 32.5390109514731947  0.9492090444942130 12.0828425860237711
 35.5007657047005694  2.7615868394678622 12.0904719843579489
 38.4603825805710215  4.6026797287943113 12.1067647081006697
 41.4131758225925424  6.4810197313978790 12.1354324352468446
 44.3562024369153249  8.3922073501735461 12.1629118051033611
 -4.6363286807925066 10.3213718508260328 12.1687183716425213
 38.6473109093700060  1.0763268801855610 12.1328615049904087
 41.5981359561804638  2.9472880957816638 12.1710931821794155
 44.5371584789184425  4.8516617225860177 12.2091199626672537
 47.4692201914441014  6.7806820994736361 12.2281636699577323
 44.7418300292115845  1.3314208439375490 12.2432940391341347
 47.6722033157101777  3.2587526309583019 12.2779419341834064
 -1.3331187538755560  5.1961597293077686 12.2797661126046069
 50.8126506941072407  1.6881724965403839 12.3192220659680753
  2.0222660492513058  0.1264431174910890 12.3197011917303811
 -20.7532132949226131 43.5093778414417116 15.8987800519152191
 -20.5548087622325930 39.9642592940483681 15.8654022859720598
 -17.6040427414668059 41.9009955531642078 15.8357966529001413
 -14.6603400964477899 43.8097738420660860 15.7909766073120092
 -17.4277256305816373 38.3534947703246516 15.8000978563590984
 -14.4796212190619595 40.2649062032743572 15.7720681812116670
 -11.5340819935887851 42.1420211400770341 15.7412035798665446
 -8.5864536474237472 43.9866440901896070 15.7166763277655477
 -17.2851903570622092 34.8033299724421568 15.7592185571347905
 -14.3267423199486235 36.7172619531114037 15.7431832614045923
 -11.3729678122874311 38.5981435662396635 15.7214153807877430
 -8.4178550821631344 40.4444628789569265 15.7074154430757158
 -5.4604235730161488 42.2666985473443333 15.7013986965917507
 -2.4993334682191191 44.0725419767298447 15.6986892309657762
 -14.2094156051078517 33.1618682140130829 15.7190497112801726
 -11.2444705637142661 35.0510335120413146 15.7021637519646760
 -8.2785597597492213 36.9042036000457685 15.6884792552842551
 -5.3080398257872003 38.7276765683999500 15.6863743535904039
 -2.3370022341147010 40.5331657266749090 15.6899127532407618
  0.6311068818825319 42.3329322765186760 15.6944020334668384
  3.5949270465272440 44.1338625045629627 15.6981378328043544
 -14.1219365605881926 29.5963254571138776 15.7048094494751389
 -11.1475903189748546 31.4951340754030973 15.6915710408834883
 -8.1723610056077796 33.3604354128676874 15.6753569537576745
 -5.1909142194936599 35.1915239879756925 15.6691145712310735
 -2.2042466862556571 37.0002245600231987 15.6723271424526089
  0.7806362403733080 38.8007027665328081 15.6802726245196080
  3.7573423369781240 40.6008482298022741 15.6902563388728264
  6.7254048876534531 42.4073136948064473 15.7048475022652365
  9.6822552882710582 44.2294802647353649 15.7262103217019931
 -11.0734729216047683 27.9291149346814471 15.6902188650053382
 -8.0921050777644954 29.8091995806344769 15.6736398697578032
 -5.1030611742744760 31.6547474375097089 15.6617125381768680
 -2.1048941910598118 33.4733316678936035 15.6602102417583318
  0.8972604221990620 35.2781941998045738 15.6646467197502002
  3.8948626025933550 37.0788589648072531 15.6736418717630048
  6.8826495930502896 38.8820130024606385 15.6915791333531729
  9.8570062013067030 40.7002898738010614 15.7190363330220375
 12.8164266467730386 42.5432636841553986 15.7591859712670743
 15.7650184464469962 44.4203700599664373 15.8106354841425940
 -11.0103891844091724 24.3556773607792785 15.6943178757177790
 -8.0261545229038198 26.2512634754275105 15.6802046941328932
 -5.0338810267171974 28.1135401572748442 15.6646071953737600
 -2.0304144430376700 29.9462536351751574 15.6573737673200419
  0.9827043834158889 31.7607526225696617 15.6573768993158122
  3.9986369857857560 33.5675047751863076 15.6616952140830978
  7.0104558923733524 35.3727368215461482 15.6753175005467362
 10.0105912879638748 37.1879654551743783 15.7021149227342267
 12.9947053882895442 39.0241798672118207 15.7431174178635658
 15.9622610778205942 40.8916198005774731 15.8000273605022272
 18.9208362133015058 42.7943796976255584 15.8651973610444550
 21.8767834929325495 44.7303821927958154 15.9172169870321998
 -7.9676995493873086 22.6850894900665274 15.6898243981276568
 -4.9744392136175097 24.5665482711342982 15.6722736499301494
 -1.9697220633528709 26.4160411826060013 15.6601455056963772
  1.0475565048442230 28.2440672425655599 15.6573484037210324
  4.0744902666503631 30.0617411801587906 15.6601904876135620
  7.1054923559024026 31.8752058842620691 15.6690576610444605
 10.1325146150009147 33.6928510012238860 15.6884032100134316
 13.1467266622980805 35.5257114643635106 15.7213176890847759
 16.1435616984572690 37.3827624520426482 15.7719444597820715
 19.1226425770124955 39.2705667464621371 15.8355821235751701
 22.0901518417773737 41.1936299182417542 15.8982769518514893
 25.0518429067790080 43.1416597036419631 15.9385558793677546
 -7.9072689986456552 19.1133817050250450 15.7012602443371545
 -4.9185778162296652 21.0148397799536042 15.6862537257944386
 -1.9147412962247641 22.8843515548348542 15.6690234193118272
  1.1042726123785671 24.7288200564635829 15.6616395854613781
  4.1364620263070071 26.5593471755992958 15.6645919943090259
  7.1785242720890352 28.3842956472784991 15.6722594985038892
 10.2264585345231005 30.2085394336841198 15.6862622484850007
 13.2681398656540779 32.0433173691388475 15.7072907172998502
 16.2963936876094522 33.8933041322748352 15.7410773849981922
 19.3038775628406398 35.7668989260288299 15.7907673562391260
 22.2908101838171149 37.6711362694898639 15.8479279058877065
 25.2609946847126352 39.6038283132487408 15.8969777807590766
 -23.7095226355198001 41.5562307406819045 15.9174855410687091
 -4.8504585158443980 17.4632847503509936 15.7072440674837814
 -1.8541314624413681 19.3540509126049010 15.6883454571607128
  1.1617546173713020 21.2178821334744363 15.6752555080844775
  4.1970714583937836 23.0630421657795566 15.6735633256029718
  7.2453697608811227 24.8990818836914549 15.6801551807617532
 10.3045494178586345 26.7327957885455589 15.6897724404443206
 13.3675378160571174 28.5709938160261743 15.7012489807758815
 16.4200444624069171 30.4182579376841566 15.7165312769705885
 19.4535639469868755 32.2800799433094028 15.7440813123156964
 22.4626830201421797 34.1651287996477677 15.7850199715269675
 25.4483647271555178 36.0772636012794194 15.8304195812169262
 28.4183142289828190 38.0164203127154181 15.8626827156398296
 -4.7624591594947958 13.9157689776075291 15.7410156102514343
 -1.7739194747790981 15.8272305608063792 15.7212306073488559
  1.2337137750839671 17.7120528699958264 15.7020281748199739
  4.2647943673581947 19.5739560468236853 15.6915037801447799
  7.3159810567645929 21.4211005094473315 15.6901259214264233
 10.3791192931989098 23.2624647713815094 15.6942383758205999
 13.4508946460901715 25.1036983754603007 15.6985018663853264
 16.5178726094820298 26.9490991615102331 15.6999962637330430
 19.5685073926958957 28.8029085149483315 15.7076769361032813
 22.5973283502358555 30.6710336832292541 15.7272306616122588
 25.5995205576406519 32.5625598275420742 15.7595329576467460
 28.5803076494210728 34.4808246969888046 15.7935574760608759
 -20.3851096222501660 36.4183181147968611 15.8106967745330032
 -1.6640938860700969 12.3034068491370192 15.7718356793986949
  1.3318699254779729 14.2096503859707344 15.7429954768589493
  4.3522647295337116 16.0889109342405412 15.7188893810221444
  7.3963953797704054 17.9474658055790854 15.7046912777200411
 10.4568718580794879 19.7952609425252497 15.6979498321036122
 13.5268325185339648 21.6383798312376037 15.6929180595542164
 16.5975491079196011 23.4794671620843758 15.6863820515803489
 19.6577553273231374 25.3263959160228112 15.6816492035522810
 22.6963494433147304 27.1816471158367037 15.6853214904036395
 25.7113465206303573 29.0533694010480339 15.7028709383224996
 28.7039190237517552 30.9502269806519443 15.7314991643078823
 31.6811270651832295 32.8729687357812708 15.7554497254122250
 -1.5187365577510950  8.7795486591969851 15.8354748913783947
  1.4653171375062579 10.7059781882360294 15.7998776943824257
  4.4686137509505848 12.6044985479321916 15.7590181299839980
  7.4959590322462812 14.4756520679200698 15.7260534459188221
 10.5444630319493804 16.3285906482840488 15.7035845909812224
 13.6032610305878983 18.1717329811302797 15.6874079428342696
 16.6667640821448906 20.0096127134664421 15.6744874994601382
 19.7258223332143281 21.8466534582450151 15.6635057359929561
 22.7699794620050788 23.6886113700707277 15.6597428969549135
 25.7926784142015890 25.5438579138590249 15.6670709051741497
 28.7947682849712905 27.4204088516617688 15.6872091380159340
 31.7796184414309444 29.3230893666768608 15.7130192282552485
 -17.1783947279626581 31.2459612959047668 15.7262308823905403
  1.6338900166678121  7.1923949452547538 15.8650445142110428
  4.6199535545731054  9.1124128321723905 15.8104494681279277
  7.6237567988224804 11.0003153180838140 15.7553795632658211
 10.6487934545820746 12.8605805166805496 15.7129904080073839
 13.6882048625626691 14.7030860591051873 15.6841078991903569
 16.7361938403731187 16.5351423834596218 15.6651952478542551
 19.7854575723510280 18.3630465236858704 15.6518029112371178
 22.8280500811227753 20.1914428882577752 15.6446098424807634
 25.8557950433190911 22.0294758989601434 15.6473345056885123
 28.8641793847479278 23.8866308947253465 15.6611921936541183
 31.8555929739706087 25.7696267184003389 15.6841265252728892
 34.8351799404130773 27.6794345498783372 15.7035597173189601
  1.8324785287408409  3.6644894228844409 15.9171653261500516
  4.8007964349974817  5.6029931457076687 15.8625877359906617
  7.7817366494979812  7.5110462032577434 15.7934369971412760
 10.7775059464777989  9.3833657671547908 15.7314143503354753
 13.7889668775672529 11.2269225223549629 15.6871471520766619
 16.8145920004701530 13.0539434088128274 15.6611559171353107
 19.8481783413982100 14.8729987323138104 15.6456380416716794
 22.8827663394146299 16.6890345532058468 15.6368799013928594
 25.9097341891595896 18.5116383648184062 15.6362464950417817
 28.9227552016365088 20.3499637330220082 15.6456538248503492
 31.9182043362667152 22.2139376210940505 15.6651942173295655
 34.9019960673594127 24.1088424815069722 15.6873710809115359
 -14.0519434668680283 26.0219918932462662 15.6980501983762561
  5.0047878618739663  2.0750224252401011 15.8971216717438697
  7.9651795018481506  4.0005452499094494 15.8304135429080066
 10.9333857783658317  5.8886996913793546 15.7594054934426477
 13.9164941269288587  7.7401425567553170 15.7027596606602504
 16.9151704615132594  9.5653346447009113 15.6669897112001877
 19.9271446784128869 11.3771666998057039 15.6472755502519654
 22.9466900454018408 13.1828025599347765 15.6362069640324250
 25.9665247701710840 14.9918702720573158 15.6322850590174980
 28.9781840876292733 16.8138982294352495 15.6368425587716615
 31.9765613444368739 18.6592463716029791 15.6517799394456514
 34.9618981894041809 20.5368504559886382 15.6744454303353269
 37.9424087229600531 22.4417325414829101 15.6928367622189917
  8.1636709569964498  0.4690100973437360 15.8479455667028990
 11.1139425015558277  2.3708578074449842 15.7848797888318320
 14.0725729616776629  4.2344965931337022 15.7270882540028296
 17.0449300153093901  6.0649306056172518 15.6852160209265019
 20.0332407610775292  7.8752381644568787 15.6596544585594870
 23.0328194829324389  9.6741151042794140 15.6445222965447144
 26.0386334635456187 11.4726815966341515 15.6368230036759641
 29.0431322223264949 13.2811621530563517 15.6361995010240875
 32.0387102614777817 15.1101130045926233 15.6445359795336945
 35.0232964669489348 16.9690930800382382 15.6634240380123320
 38.0014847456706661 18.8618514582285179 15.6862837744222645
 -10.9517257327572270 20.7748507428319726 15.6985443046983040
 14.2510120767110635  0.7074146231396670 15.7438932220462551
 17.2048457284616170  2.5455151234285411 15.7074908100144199
 20.1709568873039622  4.3610592722546517 15.6815170656382996
 23.1504837349229042  6.1599015596702209 15.6634222316447111
 26.1375446267645621  7.9533238032567244 15.6517393341638194
 29.1286489887100331  9.7526649428962333 15.6455801775554146
 32.1166309638356466 11.5689592913682588 15.6472356957208056
 35.0963745341595938 13.4118234514909318 15.6596124537504302
 38.0708706447613707 15.2881698293633495 15.6815065497583177
 41.0461132644637772 17.1960418547049372 15.6998643501262602
 20.3355873517861738  0.8304934280596150 15.6998150689640728
 23.3005432930128791  2.6343087614659648 15.6862471571229722
 26.2709165489469747  4.4291568608373266 15.6743682706022192
 29.2451792439581020  6.2265263365580514 15.6651033034086371
 32.2207867542090156  8.0350849759503564 15.6610928736314428
 35.1917320734415497  9.8664552526802485 15.6669032650495872
 38.1582767101981091 11.7290321793630330 15.6851728013742466
 41.1262487293526533 13.6272274005553129 15.7075023058854644
 -7.8337458252605803 15.5461736469135072 15.7165123601150061
 26.4303253181424864  0.8955189925724860 15.6927556639103809
 29.3943146718818156  2.6950667839077118 15.6872963023319461
 32.3558029362377297  4.5029587931230974 15.6840103651090725
 35.3158392786933817  6.3282873522803564 15.6870616099670226
 38.2717225101058958  8.1821129745425534 15.7026973273888952
 41.2296739671774901 10.0701129394817670 15.7270389932534513
 44.1950105074928743 11.9881508053504380 15.7438692016115862
 32.5199620830205589  0.9676151812378410 15.7034125044854953
 35.4711710626220338  2.7920013461043309 15.7128391722423011
 38.4181640612034272  4.6420499917575411 15.7313109124057213
 41.3666807827742247  6.5243713207502951 15.7593172264478394
 44.3229787379872349  8.4396533401650338 15.7847763251505224
 -4.6436090811820119 10.3744017976378551 15.7906783737091576
 38.5946965915696083  1.1023342202607509 15.7552369986259269
 41.5375359664738184  2.9838142304278641 15.7932997316461474
 44.4860772508151570  4.8979196707483768 15.8301678975194520
 47.4452190555694102  6.8355416368612731 15.8476447589610263
 44.6804964045263517  1.3562865050496851 15.8623822668890302
 47.6338494979090825  3.2969242727379409 15.8966944233416285
 -1.3370616591167219  5.2480752960182642 15.8981471806481700
 50.8022073746427054  1.7090723526226670 15.9381931481525037
  2.0453167150819169  0.1249318202897830 15.9385322011052395
 -22.1112224376991477 41.2088996955947806  6.5687454151995386
 -18.9504153792519219 42.8017041067246637  6.6060804756613072
 -19.1514920297886988 39.2879373037476824  6.6340775652098296
 -15.9952456711784272 40.9001923470529505  6.6739699205273189
 -12.8440167752002417 42.5495997726701702  6.7135751131760664
 -19.3256751309473032 35.7855485935243678  6.6771411081301641
 -16.1719913950435235 37.3941066165568188  6.7049879947984934
 -13.0219321336063008 39.0339148954697066  6.7383056766775731
 -9.8772517297519666 40.7100843147050782  6.7607171365168934
 -6.7371925503746857 42.4168157487394595  6.7703126310485198
 -16.3182791358313715 33.9018775927939728  6.7334973828392508
 -13.1697587298370102 35.5318425299906906  6.7619788443024866
 -10.0301756408753491 37.1967012412404472  6.7848886051277750
 -6.8963493137803216 38.8934703596280258  6.7933988786406534
 -3.7645484067271568 40.6142193829844089  6.7898020898831746
 -0.6323447548387560 42.3475679162003544  6.7804905843330836
 -16.4333535566265390 30.4230171534534328  6.7516871531521270
 -13.2869260972579166 32.0441082147638738  6.7733284457622362
 -10.1498337889256565 33.6943973223208530  6.7976600163940653
 -7.0228684613074508 35.3789467044234271  6.8120065280335096
 -3.9022796544503540 37.0899803583850058  6.8132845576438026
 -0.7828849030171320 38.8180946625377032  6.8048243160956812
  2.3389162014170641 40.5511767857405161  6.7902954535781914
  5.4648129711952631 42.2797948911347206  6.7737968322927404
 -13.3812075415833345 28.5682832789183117  6.7737787243882366
 -10.2429217794072880 30.2045231814014628  6.7975579997752638
 -7.1184571348738830 31.8727059888114148  6.8175686143921492
 -4.0061043211835399 33.5710615897283589  6.8260545193246962
 -0.9003240616206610 35.2892939845741438  6.8241005368298504
  2.2047610241662312 37.0175502070882416  6.8139928016836073
  5.3126821618046094 38.7438410824552335  6.7975643234291008
  8.4278143477117844 40.4602308825014561  6.7733224115313773
 11.5523225339083861 42.1565802534464495  6.7334843649036911
 -13.4608575902165857 25.1000759113227758  6.7706510102308393
 -10.3212205371340371 26.7254891957263538  6.7902691732088574
 -7.1939503648695098 28.3761097559384972  6.8139694337428462
 -4.0831708699141016 30.0577295951796124  6.8282168595493742
 -0.9847617492974110 31.7635270445255706  6.8322685175317330
  2.1056739936406670 33.4827269182067297  6.8282172444267992
  5.1951318827214727 35.2038760615984003  6.8175456062559876
  8.2884546987719876 36.9182725056881793  6.7976208165305056
 11.3896953740097029 38.6148697244025598  6.7619315950893473
 14.5035952635861829 40.2839151163215377  6.7048690463452054
 17.6328684254296775 41.9171374356914512  6.6327677129959914
 -10.3913326944727515 23.2541028196546939  6.7803991257466558
 -7.2594393916577404 24.8884869832755484  6.8047460023958939
 -4.1446941737838507 26.5511757107692326  6.8240623356861239
 -1.0490837728524529 28.2409645846952415  6.8322673800341231
  2.0337056455079252 29.9465274530925250  6.8322562619753278
  5.1097863511351269 31.6593163659878414  6.8259969186949796
  8.1838371038784086 33.3679724814852534  6.8119420709021412
 11.2617142914000237 35.0635052770248663  6.7848317268399398
 14.3486235040025072 36.7358250901847256  6.7383082320626464
 17.4516033323586655 38.3773631260275749  6.6732650839658678
 20.5761012332903448 39.9879347369046556  6.6012536361607008
 23.7196753662987554 41.5753443513215686  6.5432180310712686
 -10.4621457487929739 19.7875495443154570  6.7702626971318107
 -7.3241175715122599 21.4082402396229270  6.7896920796848477
 -4.2031583634962466 23.0510700981449723  6.8131926591032670
 -1.1037867955762910 24.7206015390947300  6.8259958133906604
  1.9773758030623501 26.4105338261201972  6.8281883269241286
  5.0449035232795341 28.1105149319529914  6.8240347875730460
  8.1053328011912562 29.8099326013918713  6.8131963334223737
 11.1642439698347680 31.5011390091041577  6.7932859642029477
 14.2279295279187714 33.1743449498602203  6.7606241084906387
 17.3043813366627148 34.8239805279759054  6.7134538073695236
 20.4010277691032549 36.4474814049795484  6.6550770285615846
 23.5231747888492926 38.0467528819527701  6.5978466162697433
 26.6669595996575097 39.6309055584927492  6.5629211665601339
 -7.3988851088384857 17.9325253526609423  6.7701462740254499
 -4.2679972498873324 19.5563774348642205  6.7932612340414869
 -1.1610694959061121 21.2040596539091766  6.8118989844853131
  1.9232044936200501 22.8743954281197510  6.8174680455767840
  4.9891048037801324 24.5573133903703358  6.8139052869241761
  8.0422218162591275 26.2444307508131054  6.8047066088354846
 11.0885491058266332 27.9285489801515823  6.7896675813598204
 14.1359748092452548 29.6016403586774395  6.7701583340003024
 17.1907840885896057 31.2591358869092595  6.7423913422588280
 20.2620997356870269 32.8964559062236717  6.7056361158298321
 23.3576776841778226 34.5135766404601156  6.6631121858043958
 26.4807914521873435 36.1100281124510758  6.6267924929573150
 29.6268122558963150 37.6962344115247063  6.6142717536627176
 -7.4908575994907292 14.4582229353148044  6.7423698708661792
 -4.3508113565764779 16.0665248815343737  6.7605908270751076
 -1.2316473398092380 17.6907666509042159  6.7847692131662507
  1.8612689461040060 19.3382924586793017  6.7975297718346059
  4.9301379475864389 21.0026184514325465  6.7974620275502016
  7.9822087134224962 22.6743036671837856  6.7901512872792162
 11.0235689300008737 24.3493093362092345  6.7803138461327794
 14.0610916163625905 26.0212663875391499  6.7702122635573083
 17.1029259932318425 27.6851247714336104  6.7583696099190300
 20.1565110781433958 29.3374923730186943  6.7425035590780613
 23.2300030086385441 30.9743977585611212  6.7206515479922091
 26.3313060856963155 32.5914224172202580  6.6924713907972864
 29.4595490451888402 34.1909516095311830  6.6731057921003734
 -4.4603992159872723 12.5774056294690180  6.7133815833124526
 -1.3268241159025871 14.1812596641525328  6.7382334590148352
  1.7799491055376711 15.8042460231896840  6.7618473725144179
  4.8590080577775439 17.4466483890466684  6.7731884191544651
  7.9162897028602730 19.1028974243652314  6.7736320927079134
 10.9596761862153791 20.7680330099752517  6.7705586253281203
 13.9965401094299988 22.4383863624082593  6.7688941331197503
 17.0326683125238425 24.1088655984471529  6.7686094755282218
 20.0766223684861878 25.7754082990521098  6.7668521865495714
 23.1367145007976696 27.4326271701082582  6.7602310766100153
 26.2196057274419587 29.0727733774982227  6.7450733231269346
 29.3303620584525149 30.6904948580336061  6.7253399180139679
 32.4662257358809825 32.2957404577043121  6.7184719708782730
 -4.6027400801695633  9.0838223190159724  6.6550180925288860
 -1.4567133257585720 10.6732494644502474  6.6731576022359889
  1.6684267158962720 12.2730303420726798  6.7047442575064888
  4.7658375468757894 13.8925757538109433  6.7333539605711552
  7.8361235493999022 15.5323057079239728  6.7515117503651458
 10.8877022593525226 17.1899630285332385  6.7615397763926657
 13.9301618649060490 18.8589576503113427  6.7692629177745944
 16.9698972716455643 20.5350422020988148  6.7767401967496967
 20.0130095391988192 22.2146604992011163  6.7830761581392336
 23.0669220429754525 23.8905515507860500  6.7846491070595496
 26.1391362470698176 25.5532236245891191  6.7791862469866624
 29.2360105490531588 27.1929996564211578  6.7634459006601997
 32.3588529689790576 28.8128613303757035  6.7486053209826071
 -1.6242440085534620  7.1620380392476912  6.6011499292368807
  1.5182018683428020  8.7464066104130698  6.6326044465593927
  4.6381136005863377 10.3463482293808440  6.6768421322094964
  7.7310800846132297 11.9687669803987013  6.7184712974017149
 10.8010090141674979 13.6172363387889988  6.7485987016230373
 13.8563044842551353 15.2860454394337602  6.7696581772087869
 16.9054143505651702 16.9690139361061583  6.7839761278181463
 19.9552783611574931 18.6592964615067238  6.7936439303805072
 23.0101210075113656 20.3504799207385716  6.7993531950285417
 26.0779719449006109 22.0328283943427508  6.7983242158161126
 29.1652343232623430 23.6948873525195616  6.7873823366914872
 32.2764349231616734 25.3324950281994319  6.7696557977386824
 35.4095767751944948 26.9514367962581893  6.7615137917310024
 -1.8212563607044630  3.6458155926822990  6.5429514655506900
  1.3327463708277549  5.2229559017160101  6.5643229724422421
  4.4739711236553088  6.8095365476954823  6.6134857551990738
  7.5931146020158211  8.4173674299861183  6.6730081263881766
 10.6891416747521468 10.0556613065977825  6.7252893845865422
 13.7652774361185859 11.7226894464933871  6.7634066195301976
 16.8301145881290211 13.4104618817133190  6.7873486467928839
 19.8913063534791128 15.1103221884791861  6.8003745803331856
 22.9546403327987925 16.8135716892749905  6.8068411565887459
 26.0237867022962810 18.5124174936743806  6.8076907814365937
 29.1067441122986033 20.1938979559693905  6.8003807524428490
 32.2093744587135049 21.8504009459179187  6.7839590129673661
 35.3337465200966960 23.4820953985849989  6.7692433192370789
  1.1239075594026020  1.6993103607408699  6.5217226294972477
  4.2784890587342108  3.2800121848367301  6.5631819593926171
  7.4202387167681110  4.8783811588051984  6.6266762505926931
 10.5424442341290234  6.5078930156549228  6.6923342401580914
 13.6455556020908038  8.1705358207790439  6.7449782707405346
 16.7338215115048143  9.8606170541509144  6.7791171869081550
 19.8131457416302688 11.5678683465577343  6.7982896645983928
 22.8890081834168519 13.2811418737435609  6.8076595036123146
 25.9665355766631123 14.9918369213569189  6.8110648519425787
 29.0501357945849037 16.6893598417582218  6.8068105361133329
 32.1482673008053013 18.3639968767058619  6.7936016025139256
 35.2654130027380646 20.0115788741271992  6.7766832041262788
 38.4004131151992780 21.6348970092777293  6.7687979028865399
 -21.9005793691433404 44.7332583768439989  6.5492075387907311
  7.2216938297571511  1.3482742157405250  6.5991643031703831
 10.3648429935572750  2.9716233231258879  6.6630274666723457
 13.4934898171747157  4.6306699347938514  6.7204568432355707
 16.6074070929027791  6.3207333739614171  6.7601117631020937
 19.7098445427032267  8.0313305888860231  6.7845813248242548
 22.8040162097760728  9.7521998860627797  6.7992837902479870
 25.8948260701122805 11.4725978419324335  6.8067868644288767
 28.9868112487092766 13.1819651956394708  6.8076427541551023
 32.0854494538807273 14.8728347609574687  6.7992871548276410
 35.1984362737037415 16.5363468662067703  6.7830086151711564
 38.3290494117086027 18.1702891472862937  6.7685229373201627
 -15.7985300199813636 44.4200532024072530  6.6558329365064353
 13.3129297175884833  1.0993458908698750  6.7053922768211773
 16.4478736710101074  2.7873816760601668  6.7423260812595140
 19.5726646106892055  4.4992476977122893  6.7667343449930843
 22.6881659433159619  6.2245291354694814  6.7829890055323974
 25.7960444576259285  7.9522326459461850  6.7935414349742196
 28.9015469165724603  9.6713012666570748  6.8003152214730296
 32.0084943661321901 11.3748215514452102  6.7982419556972689
 35.1228410181627524 13.0536437437735842  6.7845451823723693
 38.2503336137698398 14.7008726785560722  6.7667215916822796
 41.3910429833462530 16.3212924984541061  6.7582222961685119
 -9.7000634779486195 44.2336217435361547  6.7425379919194004
 19.4056376765197456  0.9690871930943160  6.7582015172725676
 22.5379018676339946  2.6963802985228309  6.7684806237987516
 25.6643157443459735  4.4289238152151684  6.7766085506047009
 28.7848196931400402  6.1561044275513588  6.7838680347483296
 31.9042562413951707  7.8701558830531626  6.7872717915319312
 35.0266634431545825  9.5616787123667457  6.7790490602918352
 38.1554901745633899 11.2221399176218473  6.7600708390329629
 41.2952493386150294 12.8506344612611159  6.7423390173505338
 -3.5990750869335342 44.1421654744360126  6.7704143274944046
 25.5026546061381048  0.9022680325078360  6.7687086131401193
 28.6357262015688185  2.6344880486464590  6.7691246105827370
 31.7668782664110019  4.3569795141282146  6.7695530076283026
 34.8983191855234551  6.0598038245839030  6.7632964803830928
 38.0344439524262441  7.7321911895625028  6.7449077267077469
 41.1760991162707128  9.3704675495976613  6.7204498368892436
 44.3246100156181555 10.9797048722863799  6.7054262010771453
  2.5010701985014392 44.0828742853877671  6.7707215033652908
 31.6023305498088902  0.8341488816798600  6.7613510024921482
 34.7397449241318483  2.5454152272689750  6.7484504436044199
 37.8800788232983336  4.2293217749444869  6.7251746033365896
 41.0258772308010222  5.8761428918920444  6.6922603275181158
 44.1772612298529594  7.4902826773157454  6.6628759460255527
  8.5971196995123211 43.9956457303132069  6.7516873126659220
 37.7023311176455138  0.7110135686509360  6.7183202772093624
 40.8469387649337108  2.3671972967341830  6.6728968859047653
 43.9983570765634724  3.9872403095130480  6.6263976579326478
 47.1542856529540657  5.5803179617938206  6.5975616774439789
 14.6873423892711443 43.8191054287965542  6.6770516869658101
 43.7990816326417516  0.4699916555635800  6.6133179515980052
 46.9539922200633626  2.0653838498601149  6.5619349296028604
 20.7771400273615647 43.5184960575237341  6.5643141597178207
 49.8990953027634205  0.1245884752907650  6.5206645855790892
 26.8760260608447226 43.1519925853700101  6.5224774798522036
 -21.6876162044812126 41.6963157740425743 14.0920486192941485
 -21.4920436609628354 38.1666592334110035 14.0411783853297454
 -18.5460405065597378 40.0971435803128031 14.0274763078604945
 -15.6011471297920092 42.0040665838081821 13.9907557878511835
 -18.3731656023933141 36.5576254119105002 13.9810627271583989
 -15.4233728700907662 38.4677950917765870 13.9610505789759820
 -12.4733130246123753 40.3451155589051922 13.9334761761039125
 -9.5185954051672894 42.1884988112852426 13.9113146661040403
 -18.2346135248271146 33.0066354547063554 13.9364979807291540
 -15.2773064126007405 34.9204073627054399 13.9293404898406123
 -12.3201780637434251 36.8050699100772079 13.9095588910161663
 -9.3590325354463015 38.6555089409003543 13.8933769820030459
 -6.3938489907019420 40.4762969490509192 13.8882006593657721
 -3.4285424508505580 42.2790279518218739 13.8885704425757996
 -15.1649575198561060 31.3586902577595126 13.9066865603656300
 -12.2007415931050911 33.2535418826406968 13.8925512911326390
 -9.2322367022338909 35.1152802005043156 13.8758339511363307
 -6.2566642071077192 36.9447774463214884 13.8695214250292942
 -3.2786716470156558 38.7508415265833719 13.8726290432747970
 -0.3024260322487020 40.5462224000007581 13.8792277658323258
  2.6690320027732710 42.3409421194791449 13.8856486257805329
 -15.0783496277436431 27.7859935204777102 13.8933372937792683
 -12.1097861542448353 29.6897415770936384 13.8857551510575359
 -9.1362046478862862 31.5651950056926935 13.8682018081259546
 -6.1535751298125954 33.4075029630245695 13.8561428746271016
 -3.1631548916658740 35.2226728388905457 13.8553767320650945
 -0.1707651374751210 37.0236695135488745 13.8613130556328077
  2.8179348878445638 38.8196068854349576 13.8708688083872236
  5.8002248344855047 40.6180056009417285 13.8857786309272164
  8.7731510705725189 42.4294100708728550 13.9066882628736384
 -12.0362724636647069 26.1165889932709625 13.8855892053885839
 -9.0611744699218661 28.0061994663493543 13.8708353324924882
 -6.0753181578246691 29.8642750937762180 13.8546919034650866
 -3.0777466917033669 31.6932900468935763 13.8478526933740351
 -0.0727923593147500 33.5033007315257692 13.8489906056505863
  2.9341544728477360 35.3047377832148754 13.8546948296480750
  5.9376374735468138 37.1050789906111333 13.8681907503135431
  8.9320375821436677 38.9148943606088054 13.8925418730347712
 11.9138748008857007 40.7458489736007436 13.9293150929816250
 14.8796568110371812 42.6083198798209466 13.9810168599418798
 -11.9698353464509193 22.5370057366507268 13.8876324441342227
 -8.9962958283942740 24.4405717937519320 13.8791551175868246
 -6.0114932102109213 26.3158612558767970 13.8612603723891699
 -3.0117607113599649 28.1609091640809410 13.8489591290394962
 -0.0000566426552740 29.9836903327872299 13.8457131193588285
  3.0193380393298139 31.7942671069338978 13.8478396153703596
  6.0418086370724486 33.6008978889462213 13.8560980542405208
  9.0601215640172139 35.4132278896281179 13.8757655444267964
 12.0674620663708918 37.2425626495966640 13.9094830324822158
 15.0590376285419492 39.0986413423878361 13.9609799850469880
 18.0314129830654721 40.9883321001810614 14.0273153881678585
 20.9871153186942294 42.9094346421340944 14.0916532407227137
 -8.9338838805958094 20.8668838091880389 13.8884494028525616
 -5.9533100125767664 22.7607747885061080 13.8725521588155303
 -2.9555875232375208 24.6248922284178207 13.8553119811729708
  0.0582599610104750 26.4635513894266943 13.8477916428841556
  3.0843916998177110 28.2869000209979902 13.8489603464586057
  6.1185796348120114 30.1035319079221324 13.8553344473592492
  9.1567179549400102 31.9215356455728525 13.8694366554646304
 12.1894378464862765 33.7529058132520206 13.8932843208785819
 15.2098104933655804 35.6051471932951955 13.9333711625762007
 18.2104274745264618 37.4844972583180294 13.9905571166448652
 21.1880162277750124 39.3953283194679642 14.0562342184372948
 24.1455961620567727 41.3300532442849615 14.1104395699668892
 -8.8638388784629605 17.2901745847673851 13.8968345397693245
 -5.8900399729400110 19.2002218427929314 13.8880506625306221
 -2.9002283713927008 21.0847688782980605 13.8694068674542397
  0.1116070942459210 22.9426873275256611 13.8560548237050973
  3.1409911491695470 24.7820757084866976 13.8546201073266122
  6.1820909485617230 26.6115411076194555 13.8612250226479503
  9.2318015308368881 28.4394814211026699 13.8725314067085499
 12.2837055070796595 30.2745704733183807 13.8880750465656977
 15.3289015852130586 32.1245984090128331 13.9111970448410176
 18.3587199431544512 33.9955471997739593 13.9483045919661475
 21.3637794721982495 35.8919067681732855 13.9997060271689424
 24.3427583997666908 37.8134735311738694 14.0536247131362177
 27.2995475735596713 39.7532665279536275 14.0902062094715905
 -5.8104587644979686 15.6380018596496697 13.9111432319807360
 -2.8305732008617550 17.5426853479123146 13.8932273542434590
  0.1719634911128610 19.4225897054826220 13.8757069361148879
  3.1984004874442489 21.2808070184608944 13.8681018404573493
  6.2430685730452851 23.1252794330702685 13.8707608409982566
  9.2985461768654218 24.9642931219993542 13.8790903171226212
 12.3622608774915239 26.8051797850232028 13.8884163962949625
 15.4247636406831781 28.6541995164996983 13.8968194572549297
 18.4760534459377297 30.5168193161999781 13.9117265399741612
 21.5070976158883340 32.3983619409786385 13.9405961785907646
 24.5100745342353505 34.3026908545063378 13.9813687672911140
 27.4852071248938863 36.2289544909666361 14.0220268479194505
 -5.7050798682804276 12.0786208895660980 13.9482538764404396
 -2.7366896242079060 14.0008440728367596 13.9332766469985661
  0.2525462906348430 15.9034799720467195 13.9093749486604050
  3.2685336381832131 17.7826703141988567 13.8924217369534357
  6.3093958365892071 19.6433326515271673 13.8856491809109084
  9.3670815298734507 21.4935639071028710 13.8854925430126741
 12.4338689339391770 23.3409238080579371 13.8875636368932565
 15.5040911325673179 25.1880861788476800 13.8865268215952522
 18.5681806716075641 27.0423764781419678 13.8853685049550002
 21.6156669125028706 28.9092588137787097 13.8930621919238924
 24.6399057667621086 30.7942480432032717 13.9154261049130170
 27.6351551971599818 32.7021675772065592 13.9491527214990221
 30.6049002807928758 34.6292117653543556 13.9769439160675084
 -2.6094049236468360 10.4625601948134985 13.9904507336447139
  0.3641615019231100 12.3846857670850543 13.9608513740018498
  3.3632706688774858 14.2848476581898947 13.9291573114883551
  6.3916429811458144 16.1630118286389468 13.9065342756989043
  9.4423919088135353 18.0243828955276513 13.8932167650779945
 12.5056554662452335 19.8759824944533463 13.8840688128548297
 15.5748059073974883 21.7213698223989091 13.8750630711683627
 18.6428633873979557 23.5673036115263983 13.8658961795926228
 21.6993469285304670 25.4188618363315229 13.8612800098661744
 24.7352288898208954 27.2849254710129721 13.8688942215804758
 27.7468739842795706 29.1719474745745444 13.8915414982938419
 30.7323809900636675 31.0831684511240915 13.9211639204662738
 -2.4433498814075931  6.9284893608397882 14.0560966633999840
  0.5144951036388060  8.8656735786987415 14.0271728991951576
  3.4933276045134689 10.7851654139246307 13.9808416115551228
  6.4992939650433899 12.6806330392287627 13.9362849222408887
  9.5325561779562413 14.5528364292293819 13.9038189114767068
 12.5845167583066289 16.4074915083077997 13.8808194688914011
 15.6450368084030202 18.2504718674587920 13.8646457286544109
 18.7072671185929913 20.0873421051267051 13.8506827709494686
 21.7643067530546617 21.9248271935611250 13.8416164210384132
 24.8069865292520291 23.7717830952618705 13.8422720384778835
 27.8281314549736187 25.6380126056450770 13.8561982023699191
 30.8265247846685106 27.5294874438932844 13.8812210183606997
 33.8032666625057132 29.4436468421072917 13.9038127192347201
  0.7003751482304440  5.3453990552422042 14.0915192795311572
  3.6593208767637102  7.2796348802097244 14.0409099520050820
  6.6409236313034361  9.1901819071484727 13.9768524629284556
  9.6481429966499128 11.0736180781222302 13.9210991919505052
 12.6786456802901917 12.9319780531150386 13.8811843320191155
 15.7225242578976463 14.7715590001363992 13.8565603444891448
 18.7722232369740922 16.6002601918369272 13.8404041966473628
 21.8219396665982330 18.4250285848491338 13.8302756029357532
 24.8639954749341356 20.2556122173629980 13.8279385035860436
 27.8910736884793558 22.1018158107639167 13.8365581563922895
 30.8977093104407849 23.9736084880429345 13.8565834606197509
 33.8834746329751084 25.8732397844364570 13.8808152134144578
  0.9085991837207780  1.8235145197719720 14.1321272424566722
  3.8559943432778518  3.7656269921046670 14.0902341642523368
  6.8153490121071929  5.6885716404186981 14.0219594675353036
  9.7946702557893133  7.5818283508705440 13.9490378044915069
 12.7960455936953696  9.4436802429731443 13.8914502285878072
 15.8158906682518143 11.2810212010749478 13.8561361980472544
 18.8468564206930651 13.1036275455802116 13.8365235647244322
 21.8826306818430858 14.9183039096180163 13.8253488587582432
 24.9181386859405301 16.7354509922134262 13.8211951920182621
 27.9447436165511149 18.5654209490963069 13.8253620424350991
 30.9565672993322103 20.4181375263862535 13.8403974821612081
 33.9492747098693357 22.3012555559602070 13.8646132648417897
 36.9267088858177317 24.2073091541301224 13.8840123624661551
  4.0675293149238483  0.2458636009382640 14.1107091008750860
  7.0143561608666278  2.1749463903629609 14.0537314114629961
  9.9710812229364851  4.0751596044408513 13.9812652699769231
 12.9445856902163214  5.9418139609382576 13.9152892015967140
 15.9360756088318016  7.7790350084715323 13.8687915794433803
 18.9426740260676105  9.5977488269395064 13.8421964828611337
 21.9592504434548808 11.4051977672317797 13.8278727930005090
 24.9807322442298592 13.2121660366865825 13.8211665236956556
 28.0006863581830387 15.0280095833385747 13.8211711830522290
 31.0119977491524779 16.8646322015935191 13.8302295067928451
 34.0089325313284974 18.7308626306219814 13.8506403701302609
 36.9902835865187498 20.6266411796318643 13.8749931965886635
 -18.7447968419877853 43.6273586041028665 14.0566977168145399
 10.1680022543998501  0.5557753494464830 13.9996141482556364
 13.1217922660537543  2.4266839678141179 13.9404356335697628
 16.0891429834796682  4.2652420370038326 13.8929154677021778
 19.0700760342246589  6.0829413773671153 13.8611949158008922
 22.0635328858946735  7.8861854572310879 13.8415241519439718
 25.0656412154083093  9.6859872211170455 13.8302157585795964
 28.0721892107846642 11.4919157300782047 13.8253132566859431
 31.0763069411399968 13.3148377978409851 13.8278664941287968
 34.0717303036085113 15.1646437978882815 13.8415303290327891
 37.0548831823427136 17.0466707186088442 13.8657854082125258
 40.0279120941710929 18.9545225730902409 13.8864136476264992
 -12.6537813393127561 43.8769588829419348 13.9484659695815552
 16.2667781690176234  0.7424757551992370 13.9115249753934247
 19.2296698677031337  2.5594885515956101 13.8851933090685034
 22.2018434363703889  4.3617201892806801 13.8657947422660701
 25.1833623563199360  6.1574523606213889 13.8505912096632500
 28.1707692532094001  7.9572392410597192 13.8403244011704309
 31.1616210286817115  9.7701957993843234 13.8364608061424121
 34.1499037217737964 11.6061154860795721 13.8421590878651166
 37.1301352282512624 13.4738665806460727 13.8611490285526102
 40.1017316743140171 15.3738026812676765 13.8852173918768838
 -6.5610810973685574 44.0067248039971020 13.8969891950435365
 22.3675647719343011  0.8330462260373040 13.8863615679552144
 25.3344670168864035  2.6276388878613202 13.8749170882111876
 28.3052377782309605  4.4239131574903414 13.8645320484028360
 31.2793241971082381  6.2304810515559463 13.8564724426191788
 34.2555282700749473  8.0566136654714864 13.8560610809128288
 37.2282589202148415  9.9116906011398562 13.8687387589768587
 40.1947578527079088 11.8011527733157013 13.8928898177209543
 43.1567442573933491 13.7163519832720553 13.9115278413391561
 -0.4642175141766460 44.0731705161706699 13.8877459870478930
 28.4672036533399044  0.8923864454929470 13.8839266792612239
 31.4315722275561704  2.6949363409540750 13.8807134244514288
 34.3943929783058024  4.5142107180626763 13.8810692323411704
 37.3566367270375537  6.3600138638312353 13.8913653337747203
 40.3150773314277586  8.2395986108038848 13.9152235211568609
 43.2706819901678301 10.1506089616516864 13.9403773489869121
  5.6357855955346974 44.1407522221849504 13.8934003841134945
 34.5637366407064519  0.9792038236851280 13.9036237360126389
 37.5190467420688165  2.8188927844819069 13.9209632532901875
 40.4697406753144335  4.6916642780404070 13.9489262996221193
 43.4183861647650389  6.5977912821236888 13.9811346437601181
 46.3678444256179247  8.5279711014727777 13.9994402620423113
 11.7351470018329085 44.2638402352120863 13.9364743101587401
 40.6537313622551650  1.1562603109403620 13.9767047117177992
 43.5990140143289437  3.0581266038349879 14.0217688653521293
 46.5424780929795077  4.9873200464115302 14.0533537409182419
 17.8325599681435847 44.5048539077767344 14.0410716835721843
 46.7440112717159408  1.4567889390739830 14.0898683803497420
 49.6864918005562828  3.3998014106020382 14.1101428747954465
 23.9330963774137651 44.8507313448299954 14.1321847059038621
 -24.8418660595019531 43.2769016535017670 14.1324901036010750
