Te Mo
 1.0000000000000000
    51.8951368052917772    0.0000000000000000    0.0000000000000000
   -25.9475684026458850   44.9425068062515081    0.0000000000000000
     0.0000000000000000    0.0000000000000000   80.0000000000000000
 Te  Mo
 868 434
Cartesian
 -20.9254477899999998 43.0095142799999977  7.5272619100000000
 -17.8165225499999984 44.6663808899999992  7.5272619100000000
 -17.9360965999999991 41.1455393399999991  7.5272619100000000
 -14.8271713500000004 42.8024059500000007  7.5272619100000000
 -11.7182461000000000 44.4592725600000023  7.5272619100000000
 -18.0556706399999989 37.6246977899999990  7.5272619100000000
 -14.9467453999999993 39.2815644100000014  7.5272619100000000
 -11.8378201500000007 40.9384310200000030  7.5272619100000000
 -8.7288949000000002 42.5952976299999975  7.5272619100000000
 -5.6199696599999998 44.2521642399999990  7.5272619100000000
 -15.0663194399999991 35.7607228600000013  7.5272619100000000
 -11.9573941999999995 37.4175894700000029  7.5272619100000000
 -8.8484689500000009 39.0744560799999974  7.5272619100000000
 -5.7395437100000004 40.7313226899999989  7.5272619100000000
 -2.6306184600000000 42.3881893000000005  7.5272619100000000
  0.4783067900000000 44.0450559100000021  7.5272619100000000
 -15.1858934899999998 32.2398813100000012  7.5272619100000000
 -12.0769682500000002 33.8967479200000028  7.5272619100000000
 -8.9680429999999998 35.5536145299999973  7.5272619100000000
 -5.8591177500000002 37.2104811399999988  7.5272619100000000
 -2.7501925100000002 38.8673477500000004  7.5272619100000000
  0.3587327400000000 40.5242143600000020  7.5272619100000000
  3.4676579900000002 42.1810809699999965  7.5272619100000000
  6.5765832299999998 43.8379475799999980  7.5272619100000000
 -12.1965423000000008 30.3759063699999992  7.5272619100000000
 -9.0876170500000004 32.0327729899999980  7.5272619100000000
 -5.9786918000000000 33.6896395999999996  7.5272619100000000
 -2.8697665600000000 35.3465062100000011  7.5272619100000000
  0.2391586900000000 37.0033728200000027  7.5272619100000000
  3.3480839400000000 38.6602394299999972  7.5272619100000000
  6.4570091800000000 40.3171060399999988  7.5272619100000000
  9.5659344300000004 41.9739726500000003  7.5272619100000000
 12.6748596800000008 43.6308392600000019  7.5272619100000000
 -12.3161163400000007 26.8550648299999999  7.5272619100000000
 -9.2071910999999993 28.5119314400000015  7.5272619100000000
 -6.0982658499999998 30.1687980499999995  7.5272619100000000
 -2.9893405999999998 31.8256646600000010  7.5272619100000000
  0.1195846400000000 33.4825312700000026  7.5272619100000000
  3.2285098900000002 35.1393978799999971  7.5272619100000000
  6.3374351400000002 36.7962644899999987  7.5272619100000000
  9.4463603799999998 38.4531311000000002  7.5272619100000000
 12.5552856300000002 40.1099977100000018  7.5272619100000000
 15.6642108699999998 41.7668643200000034  7.5272619100000000
 18.7731361200000002 43.4237309299999978  7.5272619100000000
 -9.3267651399999991 24.9910898900000014  7.5272619100000000
 -6.2178399000000004 26.6479564999999994  7.5272619100000000
 -3.1089146500000000 28.3048231100000010  7.5272619100000000
  0.0000106000000000 29.9616897199999990  7.5272619100000000
  3.1089358400000000 31.6185563300000005  7.5272619100000000
  6.2178610900000004 33.2754229399999986  7.5272619100000000
  9.3267863299999991 34.9322895500000001  7.5272619100000000
 12.4357115799999995 36.5891561600000017  7.5272619100000000
 15.5446368300000000 38.2460227700000033  7.5272619100000000
 18.6535620699999996 39.9028893799999977  7.5272619100000000
 21.7624873200000017 41.5597559899999993  7.5272619100000000
 24.8714125700000004 43.2166226100000017  7.5272619100000000
 -9.4463391899999998 21.4702483400000013  7.5272619100000000
 -6.3374139500000002 23.1271149499999993  7.5272619100000000
 -3.2284887000000002 24.7839815600000009  7.5272619100000000
 -0.1195634500000000 26.4408481699999989  7.5272619100000000
  2.9893617899999998 28.0977147900000013  7.5272619100000000
  6.0982870399999998 29.7545813999999993  7.5272619100000000
  9.2072122899999993 31.4114480100000009  7.5272619100000000
 12.3161375300000007 33.0683146200000024  7.5272619100000000
 15.4250627799999993 34.7251812299999969  7.5272619100000000
 18.5339880299999997 36.3820478399999985  7.5272619100000000
 21.6429132700000011 38.0389144500000000  7.5272619100000000
 24.7518385199999997 39.6957810600000016  7.5272619100000000
 27.8607637699999984 41.3526476700000032  7.5272619100000000
 -6.4569879900000000 19.6062734100000000  7.5272619100000000
 -3.3480627500000000 21.2631400200000016  7.5272619100000000
 -0.2391375000000000 22.9200066299999996  7.5272619100000000
  2.8697877500000000 24.5768732400000012  7.5272619100000000
  5.9787129900000000 26.2337398499999992  7.5272619100000000
  9.0876382400000004 27.8906064600000008  7.5272619100000000
 12.1965634800000000 29.5474730699999988  7.5272619100000000
 15.3054887300000004 31.2043396800000004  7.5272619100000000
 18.4144139799999991 32.8612062899999984  7.5272619100000000
 21.5233392200000004 34.5180728999999999  7.5272619100000000
 24.6322644699999991 36.1749395100000015  7.5272619100000000
 27.7411897200000013 37.8318061200000031  7.5272619100000000
 -21.0450218400000004 39.4886727299999976  7.5272619100000000
 -6.5765620399999998 16.0854318599999999  7.5272619100000000
 -3.4676368000000002 17.7422984700000015  7.5272619100000000
 -0.3587115500000000 19.3991650799999995  7.5272619100000000
  2.7502137000000002 21.0560316900000011  7.5272619100000000
  5.8591389400000002 22.7128982999999991  7.5272619100000000
  8.9680641899999998 24.3697649100000007  7.5272619100000000
 12.0769894400000002 26.0266315199999987  7.5272619100000000
 15.1859146799999998 27.6834981300000003  7.5272619100000000
 18.2948399299999984 29.3403647399999983  7.5272619100000000
 21.4037651800000006 30.9972313499999998  7.5272619100000000
 24.5126904199999984 32.6540979600000014  7.5272619100000000
 27.6216156700000006 34.3109645700000030  7.5272619100000000
 30.7305409199999993 35.9678311799999975  7.5272619100000000
 -3.5872108400000000 14.2214569199999996  7.5272619100000000
 -0.4782856000000000 15.8783235299999994  7.5272619100000000
  2.6306396500000000 17.5351901400000010  7.5272619100000000
  5.7395649000000004 19.1920567499999990  7.5272619100000000
  8.8484901399999991 20.8489233700000014  7.5272619100000000
 11.9574153899999995 22.5057899699999986  7.5272619100000000
 15.0663406299999991 24.1626565900000010  7.5272619100000000
 18.1752658800000013 25.8195231999999990  7.5272619100000000
 21.2841911300000000 27.4763898100000006  7.5272619100000000
 24.3931163700000013 29.1332564199999986  7.5272619100000000
 27.5020416200000000 30.7901230300000002  7.5272619100000000
 30.6109668699999986 32.4469896399999982  7.5272619100000000
 -18.1752446899999995 34.1038562499999998  7.5272619100000000
 -3.7067848900000002 10.7006153800000003  7.5272619100000000
 -0.5978596400000000 12.3574819900000001  7.5272619100000000
  2.5110655999999998 14.0143485999999999  7.5272619100000000
  5.6199908499999998 15.6712152099999997  7.5272619100000000
  8.7289160900000002 17.3280818200000013  7.5272619100000000
 11.8378413400000007 18.9849484299999993  7.5272619100000000
 14.9467665899999993 20.6418150400000009  7.5272619100000000
 18.0556918300000007 22.2986816499999989  7.5272619100000000
 21.1646170799999993 23.9555482600000005  7.5272619100000000
 24.2735423300000015 25.6124148699999985  7.5272619100000000
 27.3824675699999993 27.2692814800000001  7.5272619100000000
 30.4913928200000015 28.9261480900000016  7.5272619100000000
 33.6003180700000001 30.5830146999999997  7.5272619100000000
 -0.7174336900000000  8.8366404400000000  7.5272619100000000
  2.3914915500000000 10.4935070499999998  7.5272619100000000
  5.5004168000000000 12.1503736599999996  7.5272619100000000
  8.6093420500000004 13.8072402699999994  7.5272619100000000
 11.7182672900000000 15.4641068799999992  7.5272619100000000
 14.8271925400000004 17.1209734900000008  7.5272619100000000
 17.9361177900000008 18.7778400999999988  7.5272619100000000
 21.0450430299999987 20.4347067100000004  7.5272619100000000
 24.1539682800000008 22.0915733199999984  7.5272619100000000
 27.2628935299999995 23.7484399300000000  7.5272619100000000
 30.3718187700000009 25.4053065400000015  7.5272619100000000
 33.4807440200000030 27.0621731499999996  7.5272619100000000
 -15.3054675400000004 28.7190397600000011  7.5272619100000000
 -0.8370077400000000  5.3157988899999999  7.5272619100000000
  2.2719175100000002  6.9726654999999997  7.5272619100000000
  5.3808427500000002  8.6295321099999995  7.5272619100000000
  8.4897679999999998 10.2863987199999993  7.5272619100000000
 11.5986932500000002 11.9432653299999991  7.5272619100000000
 14.7076184899999998 13.6001319400000007  7.5272619100000000
 17.8165437400000002 15.2569985500000005  7.5272619100000000
 20.9254689800000016 16.9138651700000011  7.5272619100000000
 24.0343942300000002 18.5707317799999991  7.5272619100000000
 27.1433194799999988 20.2275983900000007  7.5272619100000000
 30.2522447200000002 21.8844649999999987  7.5272619100000000
 33.3611699699999988 23.5413316100000003  7.5272619100000000
 36.4700952199999975 25.1981982199999983  7.5272619100000000
  2.1523434600000000  3.4518239600000000  7.5272619100000000
  5.2612686999999996  5.1086905700000003  7.5272619100000000
  8.3701939500000009  6.7655571800000001  7.5272619100000000
 11.4791191999999995  8.4224237899999999  7.5272619100000000
 14.5880444399999991 10.0792903999999997  7.5272619100000000
 17.6969696899999995 11.7361570099999994  7.5272619100000000
 20.8058949400000017 13.3930236199999992  7.5272619100000000
 23.9148201799999995 15.0498902300000008  7.5272619100000000
 27.0237454300000017 16.7067568400000006  7.5272619100000000
 30.1326706800000004 18.3636234499999986  7.5272619100000000
 33.2415959200000017 20.0204900600000002  7.5272619100000000
 36.3505211700000004 21.6773566700000018  7.5272619100000000
 -12.4356903899999995 23.3342232799999998  7.5272619100000000
  5.1416946599999998  1.5878490199999999  7.5272619100000000
  8.2506199000000002  3.2447156300000000  7.5272619100000000
 11.3595451500000006  4.9015822399999998  7.5272619100000000
 14.4684703999999993  6.5584488500000004  7.5272619100000000
 17.5773956399999989  8.2153154599999993  7.5272619100000000
 20.6863208900000011  9.8721820699999991  7.5272619100000000
 23.7952461299999989 11.5290486800000007  7.5272619100000000
 26.9041713800000011 13.1859152900000005  7.5272619100000000
 30.0130966299999997 14.8427819000000003  7.5272619100000000
 33.1220218699999975 16.4996485100000001  7.5272619100000000
 36.2309471200000033 18.1565151200000017  7.5272619100000000
 39.3398723700000019 19.8133817299999997  7.5272619100000000
 11.2399711000000000  1.3807406900000001  7.5272619100000000
 14.3488963500000004  3.0376072999999999  7.5272619100000000
 17.4578215899999982  4.6944739100000001  7.5272619100000000
 20.5667468400000004  6.3513405199999999  7.5272619100000000
 23.6756720899999991  8.0082071300000006  7.5272619100000000
 26.7845973300000004  9.6650737499999995  7.5272619100000000
 29.8935225799999991 11.3219403500000002  7.5272619100000000
 33.0024478300000013 12.9788069700000008  7.5272619100000000
 36.1113730699999991 14.6356735800000006  7.5272619100000000
 39.2202983199999977 16.2925401900000004  7.5272619100000000
 -9.5659132400000004 17.9494067999999984  7.5272619100000000
 17.3382475499999984  1.1736323700000000  7.5272619100000000
 20.4471727899999998  2.8304989800000002  7.5272619100000000
 23.5560980399999984  4.4873655899999996  7.5272619100000000
 26.6650232900000006  6.1442322000000003  7.5272619100000000
 29.7739485299999984  7.8010988100000001  7.5272619100000000
 32.8828737799999971  9.4579654200000007  7.5272619100000000
 35.9917990200000020 11.1148320300000005  7.5272619100000000
 39.1007242700000006 12.7716986400000003  7.5272619100000000
 42.2096495199999993 14.4285652500000001  7.5272619100000000
 23.4365239900000013  0.9665240400000000  7.5272619100000000
 26.5454492399999999  2.6233906500000002  7.5272619100000000
 29.6543744800000013  4.2802572600000000  7.5272619100000000
 32.7632997300000000  5.9371238699999997  7.5272619100000000
 35.8722249799999986  7.5939904800000004  7.5272619100000000
 38.9811502200000035  9.2508570900000002  7.5272619100000000
 42.0900754700000022 10.9077237000000000  7.5272619100000000
 -6.6961360900000004 12.5645903099999998  7.5272619100000000
 29.5348004400000015  0.7594157100000000  7.5272619100000000
 32.6437256800000029  2.4162823200000001  7.5272619100000000
 35.7526509300000015  4.0731489300000003  7.5272619100000000
 38.8615761800000001  5.7300155500000001  7.5272619100000000
 41.9705014199999979  7.3868821599999999  7.5272619100000000
 45.0794266699999966  9.0437487700000005  7.5272619100000000
 35.6330768799999973  0.5523073900000000  7.5272619100000000
 38.7420021300000030  2.2091740000000000  7.5272619100000000
 41.8509273700000008  3.8660406100000002  7.5272619100000000
 44.9598526199999995  5.5229072199999996  7.5272619100000000
 -3.8263589400000000  7.1797738300000002  7.5272619100000000
 41.7313533299999975  0.3451990600000000  7.5272619100000000
 44.8402785700000024  2.0020656699999999  7.5272619100000000
 47.9492038200000010  3.6589322800000001  7.5272619100000000
 47.8296297699999968  0.1380907300000000  7.5272619100000000
 -0.9565817900000000  1.7949573500000000  7.5272619100000000
 -23.9147989900000013 44.8734892200000033  7.5272619100000000
 -20.9254594000000012 43.0094960400000019 11.1517005099999995
 -17.8165341499999990 44.6663626500000035 11.1517005099999995
 -17.9361081999999996 41.1455211099999971 11.1517005099999995
 -14.8271829499999992 42.8023877199999987 11.1517005099999995
 -11.7182577099999996 44.4592543300000003 11.1517005099999995
 -18.0556822500000003 37.6246795599999970 11.1517005099999995
 -14.9467569999999998 39.2815461699999986 11.1517005099999995
 -11.8378317499999994 40.9384127800000002 11.1517005099999995
 -8.7289065099999998 42.5952793900000017 11.1517005099999995
 -5.6199812600000003 44.2521460000000033 11.1517005099999995
 -15.0663310500000005 35.7607046199999985 11.1517005099999995
 -11.9574058000000001 37.4175712300000001 11.1517005099999995
 -8.8484805499999997 39.0744378400000016 11.1517005099999995
 -5.7395553100000001 40.7313044500000032 11.1517005099999995
 -2.6306300600000001 42.3881710599999977 11.1517005099999995
  0.4782951800000000 44.0450376699999993 11.1517005099999995
 -15.1859050999999994 32.2398630699999984 11.1517005099999995
 -12.0769798500000007 33.8967296900000008 11.1517005099999995
 -8.9680546000000003 35.5535962900000015 11.1517005099999995
 -5.8591293599999998 37.2104629099999968 11.1517005099999995
 -2.7502041099999999 38.8673295199999984 11.1517005099999995
  0.3587211400000000 40.5241961300000000 11.1517005099999995
  3.4676463800000001 42.1810627400000016 11.1517005099999995
  6.5765716300000001 43.8379293500000031 11.1517005099999995
 -12.1965538999999996 30.3758881400000007 11.1517005099999995
 -9.0876286499999992 32.0327547500000023 11.1517005099999995
 -5.9787033999999997 33.6896213599999967 11.1517005099999995
 -2.8697781600000001 35.3464879699999983 11.1517005099999995
  0.2391470900000000 37.0033545799999999 11.1517005099999995
  3.3480723299999999 38.6602211900000015 11.1517005099999995
  6.4569975800000003 40.3170878000000030 11.1517005099999995
  9.5659228299999999 41.9739544099999975 11.1517005099999995
 12.6748480699999995 43.6308210199999991 11.1517005099999995
 -12.3161279500000003 26.8550465900000006 11.1517005099999995
 -9.2072026999999999 28.5119131999999986 11.1517005099999995
 -6.0982774500000003 30.1687798100000002 11.1517005099999995
 -2.9893522099999998 31.8256464200000018 11.1517005099999995
  0.1195730400000000 33.4825130299999998 11.1517005099999995
  3.2284982900000001 35.1393796400000014 11.1517005099999995
  6.3374235299999997 36.7962462500000029 11.1517005099999995
  9.4463487799999992 38.4531128599999974 11.1517005099999995
 12.5552740299999996 40.1099794699999990 11.1517005099999995
 15.6641992699999992 41.7668460800000005 11.1517005099999995
 18.7731245199999996 43.4237126900000021 11.1517005099999995
 -9.3267767500000005 24.9910716499999985 11.1517005099999995
 -6.2178515000000001 26.6479382600000001 11.1517005099999995
 -3.1089262500000001 28.3048048700000017 11.1517005099999995
 -0.0000010100000000 29.9616714900000005 11.1517005099999995
  3.1089242399999999 31.6185380999999985 11.1517005099999995
  6.2178494899999999 33.2754047099999966 11.1517005099999995
  9.3267747300000003 34.9322713199999981 11.1517005099999995
 12.4356999800000008 36.5891379299999997 11.1517005099999995
 15.5446252200000004 38.2460045400000013 11.1517005099999995
 18.6535504699999990 39.9028711500000028 11.1517005099999995
 21.7624757200000012 41.5597377599999973 11.1517005099999995
 24.8714009599999990 43.2166043699999989 11.1517005099999995
 -9.4463507900000003 21.4702301099999993 11.1517005099999995
 -6.3374255499999999 23.1270967200000008 11.1517005099999995
 -3.2285002999999999 24.7839633299999988 11.1517005099999995
 -0.1195750600000000 26.4408299400000004 11.1517005099999995
  2.9893501900000001 28.0976965499999984 11.1517005099999995
  6.0982754400000001 29.7545631600000000 11.1517005099999995
  9.2072006799999997 31.4114297700000016 11.1517005099999995
 12.3161259300000001 33.0682963799999996 11.1517005099999995
 15.4250511800000005 34.7251629900000012 11.1517005099999995
 18.5339764199999983 36.3820296000000027 11.1517005099999995
 21.6429016700000005 38.0388962099999972 11.1517005099999995
 24.7518269199999992 39.6957628199999988 11.1517005099999995
 27.8607521600000005 41.3526294300000004 11.1517005099999995
 -6.4569995999999996 19.6062551700000007 11.1517005099999995
 -3.3480743500000001 21.2631217799999988 11.1517005099999995
 -0.2391491000000000 22.9199883900000003 11.1517005099999995
  2.8697761399999999 24.5768549999999983 11.1517005099999995
  5.9787013900000003 26.2337216099999999 11.1517005099999995
  9.0876266399999999 27.8905882200000015 11.1517005099999995
 12.1965518799999995 29.5474548299999995 11.1517005099999995
 15.3054771299999999 31.2043214400000011 11.1517005099999995
 18.4144023799999985 32.8611880500000026 11.1517005099999995
 21.5233276199999999 34.5180546599999971 11.1517005099999995
 24.6322528699999985 36.1749212699999987 11.1517005099999995
 27.7411781099999999 37.8317878800000003 11.1517005099999995
 -21.0450334400000010 39.4886544900000018 11.1517005099999995
 -6.5765736400000003 16.0854136200000006 11.1517005099999995
 -3.4676483999999999 17.7422802299999987 11.1517005099999995
 -0.3587231500000000 19.3991468400000002 11.1517005099999995
  2.7502020900000002 21.0560134499999982 11.1517005099999995
  5.8591273399999997 22.7128800700000006 11.1517005099999995
  8.9680525899999992 24.3697466700000014 11.1517005099999995
 12.0769778300000006 26.0266132900000002 11.1517005099999995
 15.1859030799999992 27.6834798999999983 11.1517005099999995
 18.2948283300000014 29.3403465099999998 11.1517005099999995
 21.4037535699999992 30.9972131200000014 11.1517005099999995
 24.5126788200000014 32.6540797299999994 11.1517005099999995
 27.6216040700000001 34.3109463400000010 11.1517005099999995
 30.7305293100000014 35.9678129500000026 11.1517005099999995
 -3.5872224500000001 14.2214386899999994 11.1517005099999995
 -0.4782972000000000 15.8783052999999992 11.1517005099999995
  2.6306280499999999 17.5351719099999990 11.1517005099999995
  5.7395532899999999 19.1920385200000005 11.1517005099999995
  8.8484785400000003 20.8489051299999986 11.1517005099999995
 11.9574037900000008 22.5057717400000001 11.1517005099999995
 15.0663290300000003 24.1626383500000017 11.1517005099999995
 18.1752542800000008 25.8195049599999997 11.1517005099999995
 21.2841795299999994 27.4763715700000013 11.1517005099999995
 24.3931047700000008 29.1332381799999993 11.1517005099999995
 27.5020300199999994 30.7901047900000009 11.1517005099999995
 30.6109552600000008 32.4469714000000025 11.1517005099999995
 -18.1752562900000001 34.1038380099999969 11.1517005099999995
 -3.7067964899999999 10.7005971399999993 11.1517005099999995
 -0.5978712500000000 12.3574637500000009 11.1517005099999995
  2.5110540000000001 14.0143303600000007 11.1517005099999995
  5.6199792500000001 15.6711969700000004 11.1517005099999995
  8.7289044899999997 17.3280635799999985 11.1517005099999995
 11.8378297400000001 18.9849301900000000 11.1517005099999995
 14.9467549799999997 20.6417968000000016 11.1517005099999995
 18.0556802300000001 22.2986634099999996 11.1517005099999995
 21.1646054799999987 23.9555300200000012 11.1517005099999995
 24.2735307200000001 25.6123966299999992 11.1517005099999995
 27.3824559699999988 27.2692632400000008 11.1517005099999995
 30.4913812200000010 28.9261298499999988 11.1517005099999995
 33.6003064599999988 30.5829964600000004 11.1517005099999995
 -0.7174452900000000  8.8366222000000008 11.1517005099999995
  2.3914799499999999 10.4934888100000006 11.1517005099999995
  5.5004052000000003 12.1503554200000004 11.1517005099999995
  8.6093304400000008 13.8072220300000001 11.1517005099999995
 11.7182556899999994 15.4640886399999999 11.1517005099999995
 14.8271809399999999 17.1209552500000015 11.1517005099999995
 17.9361061799999995 18.7778218700000004 11.1517005099999995
 21.0450314300000016 20.4346884799999984 11.1517005099999995
 24.1539566800000003 22.0915550900000000 11.1517005099999995
 27.2628819200000017 23.7484217000000015 11.1517005099999995
 30.3718071700000003 25.4052883099999995 11.1517005099999995
 33.4807324200000025 27.0621549200000011 11.1517005099999995
 -15.3054791399999992 28.7190215299999991 11.1517005099999995
 -0.8370193400000000  5.3157806599999997 11.1517005099999995
  2.2719059000000001  6.9726472700000004 11.1517005099999995
  5.3808311499999997  8.6295138799999993 11.1517005099999995
  8.4897563999999992 10.2863804900000009 11.1517005099999995
 11.5986816400000006 11.9432471000000007 11.1517005099999995
 14.7076068899999992 13.6001137100000005 11.1517005099999995
 17.8165321399999996 15.2569803200000003 11.1517005099999995
 20.9254573800000010 16.9138469299999983 11.1517005099999995
 24.0343826299999996 18.5707135399999999 11.1517005099999995
 27.1433078700000010 20.2275801500000014 11.1517005099999995
 30.2522331199999996 21.8844467599999994 11.1517005099999995
 33.3611583699999983 23.5413133700000010 11.1517005099999995
 36.4700836100000032 25.1981799799999990 11.1517005099999995
  2.1523318599999999  3.4518057199999999 11.1517005099999995
  5.2612570999999999  5.1086723300000001 11.1517005099999995
  8.3701823500000003  6.7655389399999999 11.1517005099999995
 11.4791075899999999  8.4224055500000006 11.1517005099999995
 14.5880328400000003 10.0792721600000004 11.1517005099999995
 17.6969580899999990 11.7361387700000002 11.1517005099999995
 20.8058833300000003 13.3930053800000000 11.1517005099999995
 23.9148085799999990 15.0498719899999998 11.1517005099999995
 27.0237338300000012 16.7067386000000013 11.1517005099999995
 30.1326590699999990 18.3636052099999993 11.1517005099999995
 33.2415843200000012 20.0204718200000009 11.1517005099999995
 36.3505095699999998 21.6773384299999989 11.1517005099999995
 -12.4357019900000001 23.3342050400000005 11.1517005099999995
  5.1416830500000001  1.5878307800000000 11.1517005099999995
  8.2506082999999997  3.2446973899999998 11.1517005099999995
 11.3595335500000001  4.9015639999999996 11.1517005099999995
 14.4684587899999997  6.5584306100000003 11.1517005099999995
 17.5773840399999983  8.2152972200000001 11.1517005099999995
 20.6863092900000005  9.8721638299999999 11.1517005099999995
 23.7952345299999983 11.5290304500000005 11.1517005099999995
 26.9041597800000005 13.1858970499999995 11.1517005099999995
 30.0130850199999983 14.8427636700000001 11.1517005099999995
 33.1220102699999970 16.4996302800000016 11.1517005099999995
 36.2309355200000027 18.1564968899999997 11.1517005099999995
 39.3398607600000005 19.8133635000000012 11.1517005099999995
 11.2399594999999994  1.3807224600000001 11.1517005099999995
 14.3488847400000008  3.0375890700000001 11.1517005099999995
 17.4578099900000012  4.6944556799999999 11.1517005099999995
 20.5667352399999999  6.3513222899999997 11.1517005099999995
 23.6756604800000012  8.0081889000000004 11.1517005099999995
 26.7845857299999999  9.6650555100000002 11.1517005099999995
 29.8935109799999985 11.3219221200000000 11.1517005099999995
 33.0024362199999999 12.9787887299999998 11.1517005099999995
 36.1113614699999985 14.6356553399999996 11.1517005099999995
 39.2202867199999972 16.2925219500000011 11.1517005099999995
 -9.5659248399999992 17.9493885599999992 11.1517005099999995
 17.3382359400000006  1.1736141300000000 11.1517005099999995
 20.4471611899999992  2.8304807400000001 11.1517005099999995
 23.5560864400000014  4.4873473500000003 11.1517005099999995
 26.6650116799999992  6.1442139600000001 11.1517005099999995
 29.7739369300000014  7.8010805699999999 11.1517005099999995
 32.8828621799999965  9.4579471799999997 11.1517005099999995
 35.9917874200000014 11.1148137899999995 11.1517005099999995
 39.1007126700000001 12.7716803999999993 11.1517005099999995
 42.2096379099999979 14.4285470100000008 11.1517005099999995
 23.4365123900000007  0.9665058000000000 11.1517005099999995
 26.5454376399999994  2.6233724100000000 11.1517005099999995
 29.6543628800000008  4.2802390199999998 11.1517005099999995
 32.7632881299999994  5.9371056299999996 11.1517005099999995
 35.8722133699999972  7.5939722500000002 11.1517005099999995
 38.9811386200000030  9.2508388600000000 11.1517005099999995
 42.0900638700000016 10.9077054699999998 11.1517005099999995
 -6.6961476900000001 12.5645720799999996 11.1517005099999995
 29.5347888300000001  0.7593974800000000 11.1517005099999995
 32.6437140800000023  2.4162640899999999 11.1517005099999995
 35.7526393300000009  4.0731307000000001 11.1517005099999995
 38.8615645699999988  5.7299973099999999 11.1517005099999995
 41.9704898199999974  7.3868639199999997 11.1517005099999995
 45.0794150700000031  9.0437305299999995 11.1517005099999995
 35.6330652799999967  0.5522891500000000 11.1517005099999995
 38.7419905200000017  2.2091557599999998 11.1517005099999995
 41.8509157700000003  3.8660223700000000 11.1517005099999995
 44.9598410199999989  5.5228889800000003 11.1517005099999995
 -3.8263705400000001  7.1797555900000001 11.1517005099999995
 41.7313417200000032  0.3451808300000000 11.1517005099999995
 44.8402669700000018  2.0020474300000002 11.1517005099999995
 47.9491922200000005  3.6589140499999999 11.1517005099999995
 47.8296181700000034  0.1380725000000000 11.1517005099999995
 -0.9565933900000000  1.7949391100000001 11.1517005099999995
 -23.9148105999999991 44.8734709800000005 11.1517005099999995
 -20.8058750299999993 43.3546954999999983 14.5324626699999992
 -20.6863009799999986 39.8338539499999982 14.5324626699999992
 -17.6969497800000006 41.6978288899999967 14.5324626699999992
 -14.7075985800000009 43.5618038200000015 14.5324626699999992
 -17.5773757300000000 38.1769873399999966 14.5324626699999992
 -14.5880245300000002 40.0409622800000022 14.5324626699999992
 -11.5986733399999995 41.9049372099999999 14.5324626699999992
 -8.6093221399999997 43.7689121499999985 14.5324626699999992
 -17.4578016799999993 34.6561457899999965 14.5324626699999992
 -14.4684504900000004 36.5201207300000021 14.5324626699999992
 -11.4790992900000006 38.3840956700000007 14.5324626699999992
 -8.4897480900000009 40.2480705999999984 14.5324626699999992
 -5.5003968900000002 42.1120455399999969 14.5324626699999992
 -2.5110456900000000 43.9760204800000025 14.5324626699999992
 -14.3488764399999997 32.9992791800000020 14.5324626699999992
 -11.3595252400000000 34.8632541200000006 14.5324626699999992
 -8.3701740400000002 36.7272290599999991 14.5324626699999992
 -5.3808228400000004 38.5912039899999968 14.5324626699999992
 -2.3914716399999998 40.4551789300000024 14.5324626699999992
  0.5978795500000000 42.3191538700000009 14.5324626699999992
  3.5872307499999998 44.1831287999999986 14.5324626699999992
 -14.2293023900000009 29.4784376399999992 14.5324626699999992
 -11.2399511899999993 31.3424125700000005 14.5324626699999992
 -8.2505999899999996 33.2063875099999990 14.5324626699999992
 -5.2612487999999997 35.0703624499999975 14.5324626699999992
 -2.2718976000000000 36.9343373800000023 14.5324626699999992
  0.7174536000000000 38.7983123200000009 14.5324626699999992
  3.7068048000000000 40.6622872599999994 14.5324626699999992
  6.6961560000000002 42.5262621899999971 14.5324626699999992
  9.6855072000000000 44.3902371300000027 14.5324626699999992
 -11.1203771400000004 27.8215710300000012 14.5324626699999992
 -8.1310259499999997 29.6855459599999989 14.5324626699999992
 -5.1416747500000000 31.5495209000000010 14.5324626699999992
 -2.1523235500000002 33.4134958400000031 14.5324626699999992
  0.8370276500000000 35.2774707700000008 14.5324626699999992
  3.8263788500000002 37.1414457099999993 14.5324626699999992
  6.8157300500000000 39.0054206499999978 14.5324626699999992
  9.8050812500000006 40.8693955800000026 14.5324626699999992
 12.7944324399999996 42.7333705200000011 14.5324626699999992
 15.7837836399999993 44.5973454599999997 14.5324626699999992
 -11.0008031000000006 24.3007294800000011 14.5324626699999992
 -8.0114519000000008 26.1647044199999996 14.5324626699999992
 -5.0221007000000002 28.0286793500000009 14.5324626699999992
 -2.0327495000000000 29.8926542899999994 14.5324626699999992
  0.9566017000000000 31.7566292300000015 14.5324626699999992
  3.9459529000000000 33.6206041599999992 14.5324626699999992
  6.9353040899999998 35.4845790999999977 14.5324626699999992
  9.9246552900000005 37.3485540400000033 14.5324626699999992
 12.9140064900000002 39.2125289700000010 14.5324626699999992
 15.9033576900000000 41.0765039099999996 14.5324626699999992
 18.8927088900000015 42.9404788499999981 14.5324626699999992
 21.8820600899999995 44.8044537800000029 14.5324626699999992
 -7.8918778500000002 22.6438628699999995 14.5324626699999992
 -4.9025266500000004 24.5078378100000016 14.5324626699999992
 -1.9131754500000000 26.3718127399999993 14.5324626699999992
  1.0761757500000000 28.2357876800000014 14.5324626699999992
  4.0655269399999998 30.0997626199999999 14.5324626699999992
  7.0548781399999996 31.9637375500000012 14.5324626699999992
 10.0442293399999993 33.8277124900000032 14.5324626699999992
 13.0335805400000009 35.6916874300000018 14.5324626699999992
 16.0229317400000006 37.5556623599999995 14.5324626699999992
 19.0122829399999986 39.4196372999999980 14.5324626699999992
 22.0016341400000002 41.2836122399999965 14.5324626699999992
 24.9909853300000009 43.1475871700000013 14.5324626699999992
 -7.7723038000000004 19.1230213199999994 14.5324626699999992
 -4.7829525999999998 20.9869962600000015 14.5324626699999992
 -1.7936014000000000 22.8509711899999992 14.5324626699999992
  1.1957497900000000 24.7149461300000013 14.5324626699999992
  4.1851009899999996 26.5789210699999998 14.5324626699999992
  7.1744521900000002 28.4428960099999983 14.5324626699999992
 10.1638033900000000 30.3068709399999996 14.5324626699999992
 13.1531545899999998 32.1708458800000017 14.5324626699999992
 16.1425057900000013 34.0348208200000002 14.5324626699999992
 19.1318569799999985 35.8987957499999979 14.5324626699999992
 22.1212081800000000 37.7627706900000035 14.5324626699999992
 25.1105593800000015 39.6267456300000021 14.5324626699999992
 -23.7952262300000008 41.4907205599999998 14.5324626699999992
 -4.6633785500000000 17.4661547100000014 14.5324626699999992
 -1.6740273600000000 19.3301296499999999 14.5324626699999992
  1.3153238400000000 21.1941045800000012 14.5324626699999992
  4.3046750400000002 23.0580795199999997 14.5324626699999992
  7.2940262400000000 24.9220544599999982 14.5324626699999992
 10.2833774400000006 26.7860293899999995 14.5324626699999992
 13.2727286400000004 28.6500043300000016 14.5324626699999992
 16.2620798300000011 30.5139792700000001 14.5324626699999992
 19.2514310299999991 32.3779542099999986 14.5324626699999992
 22.2407822300000007 34.2419291400000034 14.5324626699999992
 25.2301334299999986 36.1059040800000020 14.5324626699999992
 28.2194846300000002 37.9698790200000005 14.5324626699999992
 -4.5438045100000002 13.9453131599999995 14.5324626699999992
 -1.5544533100000000 15.8092880999999998 14.5324626699999992
  1.4348978900000000 17.6732630399999984 14.5324626699999992
  4.4242490900000000 19.5372379699999996 14.5324626699999992
  7.4136002899999998 21.4012129100000017 14.5324626699999992
 10.4029514800000005 23.2651878500000002 14.5324626699999992
 13.3923026800000002 25.1291627800000015 14.5324626699999992
 16.3816538799999982 26.9931377200000000 14.5324626699999992
 19.3710050799999998 28.8571126599999985 14.5324626699999992
 22.3603562800000013 30.7210875899999998 14.5324626699999992
 25.3497074799999993 32.5850625300000019 14.5324626699999992
 28.3390586800000008 34.4490374700000004 14.5324626699999992
 -20.5667269300000015 36.3130123999999981 14.5324626699999992
 -1.4348792600000000 12.2884465499999997 14.5324626699999992
  1.5544719400000000 14.1524214900000000 14.5324626699999992
  4.5438231399999998 16.0163964300000004 14.5324626699999992
  7.5331743299999996 17.8803713600000016 14.5324626699999992
 10.5225255299999993 19.7443463000000001 14.5324626699999992
 13.5118767299999991 21.6083212399999987 14.5324626699999992
 16.5012279299999989 23.4722961699999999 14.5324626699999992
 19.4905791300000004 25.3362711099999984 14.5324626699999992
 22.4799303299999984 27.2002460500000005 14.5324626699999992
 25.4692815299999999 29.0642209800000018 14.5324626699999992
 28.4586327200000007 30.9281959200000003 14.5324626699999992
 31.4479839199999986 32.7921708599999988 14.5324626699999992
 -1.3153052100000000  8.7676050100000005 14.5324626699999992
  1.6740459900000000 10.6315799400000000 14.5324626699999992
  4.6633971799999996 12.4955548800000003 14.5324626699999992
  7.6527483800000002 14.3595298200000006 14.5324626699999992
 10.6420995800000000 16.2235047500000000 14.5324626699999992
 13.6314507799999998 18.0874796899999986 14.5324626699999992
 16.6208019799999995 19.9514546300000006 14.5324626699999992
 19.6101531800000011 21.8154295599999983 14.5324626699999992
 22.5995043699999982 23.6794045000000004 14.5324626699999992
 25.5888555699999998 25.5433794399999989 14.5324626699999992
 28.5782067700000013 27.4073543700000002 14.5324626699999992
 31.5675579699999993 29.2713293099999987 14.5324626699999992
 -17.3382276399999995 31.1353042500000008 14.5324626699999992
  1.7936200300000000  7.1107383999999998 14.5324626699999992
  4.7829712300000002  8.9747133300000002 14.5324626699999992
  7.7723224300000000 10.8386882700000005 14.5324626699999992
 10.7616736300000007 12.7026632100000008 14.5324626699999992
 13.7510248300000004 14.5666381400000002 14.5324626699999992
 16.7403760300000002 16.4306130800000005 14.5324626699999992
 19.7297272200000009 18.2945880199999991 14.5324626699999992
 22.7190784199999989 20.1585629500000003 14.5324626699999992
 25.7084296200000004 22.0225378899999988 14.5324626699999992
 28.6977808199999984 23.8865128300000009 14.5324626699999992
 31.6871320200000000 25.7504877599999986 14.5324626699999992
 34.6764832200000015 27.6144627000000007 14.5324626699999992
  1.9131940800000000  3.5898968500000001 14.5324626699999992
  4.9025452800000000  5.4538717900000000 14.5324626699999992
  7.8918964799999998  7.3178467200000004 14.5324626699999992
 10.8812476799999995  9.1818216600000007 14.5324626699999992
 13.8705988700000002 11.0457965999999992 14.5324626699999992
 16.8599500700000000 12.9097715300000004 14.5324626699999992
 19.8493012700000016 14.7737464700000007 14.5324626699999992
 22.8386524699999995 16.6377214100000010 14.5324626699999992
 25.8280036700000011 18.5016963399999987 14.5324626699999992
 28.8173548699999991 20.3656712800000008 14.5324626699999992
 31.8067060700000006 22.2296462199999993 14.5324626699999992
 34.7960572599999978 24.0936211500000006 14.5324626699999992
 -14.1097283400000002 25.9575960899999991 14.5324626699999992
  5.0221193299999998  1.9330302399999999 14.5324626699999992
  8.0114705300000004  3.7970051800000002 14.5324626699999992
 11.0008217199999994  5.6609801099999997 14.5324626699999992
 13.9901729199999991  7.5249550500000000 14.5324626699999992
 16.9795241200000007  9.3889299899999994 14.5324626699999992
 19.9688753199999987 11.2529049200000006 14.5324626699999992
 22.9582265200000002 13.1168798599999992 14.5324626699999992
 25.9475777200000017 14.9808547999999995 14.5324626699999992
 28.9369289199999997 16.8448297300000007 14.5324626699999992
 31.9262801100000004 18.7088046699999992 14.5324626699999992
 34.9156313100000020 20.5727796100000013 14.5324626699999992
 37.9049825100000035 22.4367545399999990 14.5324626699999992
  8.1310445700000002  0.2761636300000000 14.5324626699999992
 11.1203957700000000  2.1401385700000000 14.5324626699999992
 14.1097469699999998  4.0041134999999999 14.5324626699999992
 17.0990981700000013  5.8680884400000002 14.5324626699999992
 20.0884493699999993  7.7320633799999996 14.5324626699999992
 23.0778005700000008  9.5960383100000008 14.5324626699999992
 26.0671517699999988 11.4600132499999994 14.5324626699999992
 29.0565029599999995 13.3239881899999997 14.5324626699999992
 32.0458541599999975 15.1879631199999992 14.5324626699999992
 35.0352053599999991 17.0519380600000012 14.5324626699999992
 38.0245565600000006 18.9159129999999998 14.5324626699999992
 -10.8812290500000000 20.7798879300000010 14.5324626699999992
 14.2293210200000004  0.4832719500000000 14.5324626699999992
 17.2186722199999984  2.3472468900000001 14.5324626699999992
 20.2080234200000000  4.2112218300000004 14.5324626699999992
 23.1973746100000007  6.0751967699999998 14.5324626699999992
 26.1867258099999987  7.9391717000000002 14.5324626699999992
 29.1760770100000002  9.8031466399999996 14.5324626699999992
 32.1654282100000017 11.6671215799999999 14.5324626699999992
 35.1547794100000033 13.5310965099999994 14.5324626699999992
 38.1441306099999977 15.3950714499999997 14.5324626699999992
 41.1334817999999984 17.2590463900000017 14.5324626699999992
 20.3275974599999998  0.6903802800000000 14.5324626699999992
 23.3169486600000013  2.5543552200000001 14.5324626699999992
 26.3062998599999993  4.4183301500000001 14.5324626699999992
 29.2956510600000009  6.2823050900000004 14.5324626699999992
 32.2850022599999988  8.1462800299999998 14.5324626699999992
 35.2743534600000004 10.0102549700000001 14.5324626699999992
 38.2637046600000019 11.8742298999999996 14.5324626699999992
 41.2530558500000026 13.7382048399999999 14.5324626699999992
 -7.6527297499999998 15.6021797800000002 14.5324626699999992
 26.4258739100000000  0.8974886100000000 14.5324626699999992
 29.4152251100000015  2.7614635399999998 14.5324626699999992
 32.4045763100000030  4.6254384799999997 14.5324626699999992
 35.3939274999999967  6.4894134200000000 14.5324626699999992
 38.3832786999999982  8.3533883499999995 14.5324626699999992
 41.3726298999999997 10.2173632899999998 14.5324626699999992
 44.3619811000000013 12.0813382300000001 14.5324626699999992
 32.5241503499999993  1.1045969300000000 14.5324626699999992
 35.5135015500000009  2.9685718699999999 14.5324626699999992
 38.5028527500000024  4.8325468100000002 14.5324626699999992
 41.4922039499999968  6.6965217399999997 14.5324626699999992
 44.4815551499999984  8.5604966800000000 14.5324626699999992
 -4.4242304600000004 10.4244716200000003 14.5324626699999992
 38.6224267999999995  1.3117052600000001 14.5324626699999992
 41.6117780000000010  3.1756802000000000 14.5324626699999992
 44.6011291900000018  5.0396551299999999 14.5324626699999992
 47.5904803900000033  6.9036300700000002 14.5324626699999992
 44.7207032399999989  1.5188135899999999 14.5324626699999992
 47.7100544400000004  3.3827885200000001 14.5324626699999992
 -1.1957311700000000  5.2467634600000004 14.5324626699999992
 50.8189796899999990  1.7259219100000001 14.5324626699999992
  2.0327681300000000  0.0690553000000000 14.5324626699999992
 -20.8058853699999986 43.3546765199999982 18.1569012699999988
 -20.6863113200000015 39.8338349699999981 18.1569012699999988
 -17.6969601200000000 41.6978099099999966 18.1569012699999988
 -14.7076089200000002 43.5617848400000014 18.1569012699999988
 -17.5773860699999993 38.1769683599999965 18.1569012699999988
 -14.5880348699999995 40.0409433000000021 18.1569012699999988
 -11.5986836699999998 41.9049182299999998 18.1569012699999988
 -8.6093324800000008 43.7688931699999983 18.1569012699999988
 -17.4578120199999987 34.6561268100000035 18.1569012699999988
 -14.4684608299999997 36.5201017500000020 18.1569012699999988
 -11.4791096300000000 38.3840766900000006 18.1569012699999988
 -8.4897584300000002 40.2480516199999983 18.1569012699999988
 -5.5004072300000004 42.1120265599999968 18.1569012699999988
 -2.5110560300000002 43.9760015000000024 18.1569012699999988
 -14.3488867800000008 32.9992602000000019 18.1569012699999988
 -11.3595355799999993 34.8632351400000005 18.1569012699999988
 -8.3701843799999995 36.7272100699999982 18.1569012699999988
 -5.3808331799999998 38.5911850099999967 18.1569012699999988
 -2.3914819800000000 40.4551599500000023 18.1569012699999988
  0.5978692200000000 42.3191348900000008 18.1569012699999988
  3.5872204100000000 44.1831098199999985 18.1569012699999988
 -14.2293127300000002 29.4784186499999983 18.1569012699999988
 -11.2399615300000004 31.3423935900000004 18.1569012699999988
 -8.2506103300000007 33.2063685299999989 18.1569012699999988
 -5.2612591300000000 35.0703434599999966 18.1569012699999988
 -2.2719079299999998 36.9343184000000022 18.1569012699999988
  0.7174432600000000 38.7982933400000007 18.1569012699999988
  3.7067944599999998 40.6622682699999984 18.1569012699999988
  6.6961456600000000 42.5262432099999970 18.1569012699999988
  9.6854968600000007 44.3902181500000026 18.1569012699999988
 -11.1203874799999998 27.8215520400000003 18.1569012699999988
 -8.1310362800000000 29.6855269799999988 18.1569012699999988
 -5.1416850900000002 31.5495019200000009 18.1569012699999988
 -2.1523338900000000 33.4134768500000021 18.1569012699999988
  0.8370173100000000 35.2774517900000006 18.1569012699999988
  3.8263685100000000 37.1414267299999992 18.1569012699999988
  6.8157197099999998 39.0054016599999969 18.1569012699999988
  9.8050709099999995 40.8693766000000025 18.1569012699999988
 12.7944221000000002 42.7333515400000010 18.1569012699999988
 15.7837733000000000 44.5973264699999987 18.1569012699999988
 -11.0008134299999991 24.3007105000000010 18.1569012699999988
 -8.0114622400000002 26.1646854299999987 18.1569012699999988
 -5.0221110400000004 28.0286603700000008 18.1569012699999988
 -2.0327598400000002 29.8926353099999993 18.1569012699999988
  0.9565913600000000 31.7566102400000005 18.1569012699999988
  3.9459425600000002 33.6205851799999991 18.1569012699999988
  6.9352937600000004 35.4845601199999976 18.1569012699999988
  9.9246449499999994 37.3485350500000024 18.1569012699999988
 12.9139961499999991 39.2125099900000009 18.1569012699999988
 15.9033473500000007 41.0764849299999995 18.1569012699999988
 18.8926985499999986 42.9404598599999971 18.1569012699999988
 21.8820497500000002 44.8044348000000028 18.1569012699999988
 -7.8918881900000004 22.6438438899999994 18.1569012699999988
 -4.9025369899999998 24.5078188200000007 18.1569012699999988
 -1.9131857900000000 26.3717937599999992 18.1569012699999988
  1.0761654100000000 28.2357687000000013 18.1569012699999988
  4.0655166100000004 30.0997436299999990 18.1569012699999988
  7.0548678000000002 31.9637185700000011 18.1569012699999988
 10.0442190000000000 33.8276935100000031 18.1569012699999988
 13.0335701999999998 35.6916684400000008 18.1569012699999988
 16.0229214000000013 37.5556433799999994 18.1569012699999988
 19.0122725999999993 39.4196183199999979 18.1569012699999988
 22.0016238000000008 41.2835932500000027 18.1569012699999988
 24.9909749900000016 43.1475681900000012 18.1569012699999988
 -7.7723141399999998 19.1230023399999993 18.1569012699999988
 -4.7829629400000000 20.9869772800000014 18.1569012699999988
 -1.7936117400000000 22.8509522099999991 18.1569012699999988
  1.1957394600000000 24.7149271500000012 18.1569012699999988
  4.1850906500000002 26.5789020899999997 18.1569012699999988
  7.1744418500000000 28.4428770200000010 18.1569012699999988
 10.1637930500000007 30.3068519599999995 18.1569012699999988
 13.1531442500000004 32.1708269000000016 18.1569012699999988
 16.1424954499999984 34.0348018299999993 18.1569012699999988
 19.1318466500000000 35.8987767699999978 18.1569012699999988
 22.1211978400000007 37.7627517100000034 18.1569012699999988
 25.1105490399999987 39.6267266400000011 18.1569012699999988
 -23.7952365599999993 41.4907015799999996 18.1569012699999988
 -4.6633888900000002 17.4661357300000013 18.1569012699999988
 -1.6740377000000000 19.3301106699999998 18.1569012699999988
  1.3153135000000000 21.1940856000000011 18.1569012699999988
  4.3046647000000000 23.0580605399999996 18.1569012699999988
  7.2940158999999998 24.9220354800000017 18.1569012699999988
 10.2833670999999995 26.7860104099999994 18.1569012699999988
 13.2727182999999993 28.6499853500000015 18.1569012699999988
 16.2620694899999982 30.5139602900000000 18.1569012699999988
 19.2514206899999998 32.3779352199999977 18.1569012699999988
 22.2407718900000013 34.2419101600000033 18.1569012699999988
 25.2301230899999993 36.1058851000000018 18.1569012699999988
 28.2194742900000008 37.9698600299999995 18.1569012699999988
 -4.5438148500000004 13.9452941799999994 18.1569012699999988
 -1.5544636500000000 15.8092691199999997 18.1569012699999988
  1.4348875500000000 17.6732440599999983 18.1569012699999988
  4.4242387499999998 19.5372189899999995 18.1569012699999988
  7.4135899500000004 21.4011939300000016 18.1569012699999988
 10.4029411500000002 23.2651688700000001 18.1569012699999988
 13.3922923500000000 25.1291438000000014 18.1569012699999988
 16.3816435399999989 26.9931187399999999 18.1569012699999988
 19.3709947400000004 28.8570936799999984 18.1569012699999988
 22.3603459399999984 30.7210686099999997 18.1569012699999988
 25.3496971400000000 32.5850435500000017 18.1569012699999988
 28.3390483400000015 34.4490184900000003 18.1569012699999988
 -20.5667372700000008 36.3129934199999980 18.1569012699999988
 -1.4348896000000000 12.2884275699999996 18.1569012699999988
  1.5544616000000000 14.1524025099999999 18.1569012699999988
  4.5438128000000004 16.0163774500000002 18.1569012699999988
  7.5331640000000002 17.8803523800000015 18.1569012699999988
 10.5225151900000000 19.7443273200000000 18.1569012699999988
 13.5118663899999998 21.6083022599999985 18.1569012699999988
 16.5012175899999995 23.4722771899999998 18.1569012699999988
 19.4905687900000011 25.3362521299999983 18.1569012699999988
 22.4799199899999991 27.2002270700000004 18.1569012699999988
 25.4692711900000006 29.0642020000000016 18.1569012699999988
 28.4586223800000013 30.9281769400000002 18.1569012699999988
 31.4479735799999993 32.7921518799999987 18.1569012699999988
 -1.3153155500000000  8.7675860300000004 18.1569012699999988
  1.6740356500000000 10.6315609599999998 18.1569012699999988
  4.6633868500000002 12.4955359000000001 18.1569012699999988
  7.6527380400000000 14.3595108299999996 18.1569012699999988
 10.6420892400000007 16.2234857699999999 18.1569012699999988
 13.6314404400000004 18.0874607099999984 18.1569012699999988
 16.6207916400000002 19.9514356500000005 18.1569012699999988
 19.6101428400000017 21.8154105800000018 18.1569012699999988
 22.5994940399999997 23.6793855200000003 18.1569012699999988
 25.5888452300000004 25.5433604599999988 18.1569012699999988
 28.5781964299999984 27.4073353900000001 18.1569012699999988
 31.5675476300000000 29.2713103299999986 18.1569012699999988
 -17.3382379799999988 31.1352852700000007 18.1569012699999988
  1.7936096900000000  7.1107194199999997 18.1569012699999988
  4.7829608900000000  8.9746943500000000 18.1569012699999988
  7.7723120899999998 10.8386692900000003 18.1569012699999988
 10.7616632899999995 12.7026442199999998 18.1569012699999988
 13.7510144899999993 14.5666191600000001 18.1569012699999988
 16.7403656900000009 16.4305941000000004 18.1569012699999988
 19.7297168899999988 18.2945690300000017 18.1569012699999988
 22.7190680799999996 20.1585439700000002 18.1569012699999988
 25.7084192800000011 22.0225189099999987 18.1569012699999988
 28.6977704799999991 23.8864938500000008 18.1569012699999988
 31.6871216800000006 25.7504687799999985 18.1569012699999988
 34.6764728799999986 27.6144437200000006 18.1569012699999988
  1.9131837400000000  3.5898778700000000 18.1569012699999988
  4.9025349399999998  5.4538527999999999 18.1569012699999988
  7.8918861400000004  7.3178277400000002 18.1569012699999988
 10.8812373400000002  9.1818026800000005 18.1569012699999988
 13.8705885400000000 11.0457776100000000 18.1569012699999988
 16.8599397400000015 12.9097525500000003 18.1569012699999988
 19.8492909299999987 14.7737274900000006 18.1569012699999988
 22.8386421300000002 16.6377024200000001 18.1569012699999988
 25.8279933300000017 18.5016773599999986 18.1569012699999988
 28.8173445299999997 20.3656523000000007 18.1569012699999988
 31.8066957300000013 22.2296272299999984 18.1569012699999988
 34.7960469300000028 24.0936021700000005 18.1569012699999988
 -14.1097386799999995 25.9575771099999990 18.1569012699999988
  5.0221089900000004  1.9330112600000000 18.1569012699999988
  8.0114601899999993  3.7969861900000001 18.1569012699999988
 11.0008113900000009  5.6609611299999996 18.1569012699999988
 13.9901625799999998  7.5249360699999999 18.1569012699999988
 16.9795137800000013  9.3889110000000002 18.1569012699999988
 19.9688649799999993 11.2528859400000005 18.1569012699999988
 22.9582161800000009 13.1168608800000008 18.1569012699999988
 25.9475673799999988 14.9808358100000003 18.1569012699999988
 28.9369185800000004 16.8448107500000006 18.1569012699999988
 31.9262697799999984 18.7087856899999991 18.1569012699999988
 34.9156209699999991 20.5727606200000004 18.1569012699999988
 37.9049721700000006 22.4367355599999989 18.1569012699999988
  8.1310342400000000  0.2761446500000000 18.1569012699999988
 11.1203854300000007  2.1401195799999999 18.1569012699999988
 14.1097366300000004  4.0040945199999998 18.1569012699999988
 17.0990878299999984  5.8680694600000001 18.1569012699999988
 20.0884390300000000  7.7320443900000004 18.1569012699999988
 23.0777902300000015  9.5960193300000007 18.1569012699999988
 26.0671414299999995 11.4599942699999993 18.1569012699999988
 29.0564926200000002 13.3239692000000005 18.1569012699999988
 32.0458438200000018 15.1879441400000008 18.1569012699999988
 35.0351950200000033 17.0519190800000011 18.1569012699999988
 38.0245462199999977 18.9158940099999988 18.1569012699999988
 -10.8812393899999993 20.7798689500000009 18.1569012699999988
 14.2293106799999993  0.4832529700000000 18.1569012699999988
 17.2186618799999991  2.3472279100000000 18.1569012699999988
 20.2080130800000006  4.2112028500000003 18.1569012699999988
 23.1973642799999986  6.0751777799999997 18.1569012699999988
 26.1867154699999993  7.9391527200000001 18.1569012699999988
 29.1760666700000009  9.8031276599999995 18.1569012699999988
 32.1654178699999989 11.6671025900000007 18.1569012699999988
 35.1547690700000004 13.5310775299999992 18.1569012699999988
 38.1441202700000019 15.3950524699999995 18.1569012699999988
 41.1334714700000035 17.2590274000000008 18.1569012699999988
 20.3275871300000013  0.6903613000000000 18.1569012699999988
 23.3169383199999984  2.5543362400000000 18.1569012699999988
 26.3062895200000000  4.4183111700000000 18.1569012699999988
 29.2956407200000015  6.2822861100000003 18.1569012699999988
 32.2849919200000031  8.1462610499999997 18.1569012699999988
 35.2743431199999975 10.0102359799999991 18.1569012699999988
 38.2636943199999990 11.8742109199999994 18.1569012699999988
 41.2530455099999998 13.7381858599999997 18.1569012699999988
 -7.6527400900000000 15.6021607899999992 18.1569012699999988
 26.4258635700000006  0.8974696300000000 18.1569012699999988
 29.4152147699999986  2.7614445600000002 18.1569012699999988
 32.4045659700000002  4.6254194999999996 18.1569012699999988
 35.3939171700000017  6.4893944399999999 18.1569012699999988
 38.3832683600000024  8.3533693699999993 18.1569012699999988
 41.3726195599999969 10.2173443099999997 18.1569012699999988
 44.3619707599999984 12.0813192500000000 18.1569012699999988
 32.5241400100000035  1.1045779499999999 18.1569012699999988
 35.5134912099999980  2.9685528900000002 18.1569012699999988
 38.5028424099999995  4.8325278300000001 18.1569012699999988
 41.4921936100000011  6.6965027600000004 18.1569012699999988
 44.4815448100000026  8.5604776999999999 18.1569012699999988
 -4.4242407999999998 10.4244526400000002 18.1569012699999988
 38.6224164599999966  1.3116862800000000 18.1569012699999988
 41.6117676599999982  3.1756612199999998 18.1569012699999988
 44.6011188599999997  5.0396361499999998 18.1569012699999988
 47.5904700600000012  6.9036110900000001 18.1569012699999988
 44.7206929000000031  1.5187946000000001 18.1569012699999988
 47.7100440999999975  3.3827695400000000 18.1569012699999988
 -1.1957415000000000  5.2467444800000003 18.1569012699999988
 50.8189693500000033  1.7259029299999999 18.1569012699999988
  2.0327577899999998  0.0690363200000000 18.1569012699999988
 -22.0016567899999984 41.2835432899999972  9.3401858099999995
 -18.8927315500000006 42.9404098999999988  9.3401858099999995
 -19.0123056000000012 39.4195683599999995  9.3401858099999995
 -15.9033803500000008 41.0764349700000011  9.3401858099999995
 -12.7944551000000004 42.7333015800000027  9.3401858099999995
 -19.1318796400000011 35.8987268099999994  9.3401858099999995
 -16.0229543999999997 37.5555934200000010  9.3401858099999995
 -12.9140291499999993 39.2124600300000026  9.3401858099999995
 -9.8051039000000006 40.8693266399999970  9.3401858099999995
 -6.6961786600000002 42.5261932499999986  9.3401858099999995
 -16.1425284399999995 34.0347518700000009  9.3401858099999995
 -13.0336031999999999 35.6916184800000025  9.3401858099999995
 -9.9246779499999995 37.3484850899999969  9.3401858099999995
 -6.8157527099999999 39.0053516999999985  9.3401858099999995
 -3.7068274600000000 40.6622183100000001  9.3401858099999995
 -0.5979022100000000 42.3190849200000017  9.3401858099999995
 -16.2621024900000002 30.5139103200000008  9.3401858099999995
 -13.1531772500000006 32.1707769300000024  9.3401858099999995
 -10.0442520000000002 33.8276435399999968  9.3401858099999995
 -6.9353267499999998 35.4845101599999992  9.3401858099999995
 -3.8264015100000002 37.1413767700000008  9.3401858099999995
 -0.7174762600000000 38.7982433800000024  9.3401858099999995
  2.3914489900000002 40.4551099899999969  9.3401858099999995
  5.5003742300000003 42.1119765999999984  9.3401858099999995
 -13.2727512900000004 28.6499353899999996  9.3401858099999995
 -10.1638260500000008 30.3068020000000011  9.3401858099999995
 -7.0549008000000004 31.9636686099999991  9.3401858099999995
 -3.9459755500000000 33.6205352200000007  9.3401858099999995
 -0.8370503100000000 35.2774018300000023  9.3401858099999995
  2.2718749400000000 36.9342684399999968  9.3401858099999995
  5.3808001799999996 38.5911350499999983  9.3401858099999995
  8.4897254300000000 40.2480016599999999  9.3401858099999995
 11.5986506800000004 41.9048682700000015  9.3401858099999995
 -13.3923253399999993 25.1290938399999995  9.3401858099999995
 -10.2834000999999997 26.7859604500000010  9.3401858099999995
 -7.1744748500000002 28.4428270599999991  9.3401858099999995
 -4.0655495999999998 30.0996936700000006  9.3401858099999995
 -0.9566243600000000 31.7565602799999986  9.3401858099999995
  2.1523008899999998 33.4134268899999967  9.3401858099999995
  5.2612261399999998 35.0702934999999982  9.3401858099999995
  8.3701513799999994 36.7271601099999998  9.3401858099999995
 11.4790766299999998 38.3840267200000014  9.3401858099999995
 14.5880018800000002 40.0408933300000029  9.3401858099999995
 17.6969271200000016 41.6977599399999974  9.3401858099999995
 -10.4029741399999995 23.2651189000000009  9.3401858099999995
 -7.2940488999999999 24.9219855099999990  9.3401858099999995
 -4.1851236500000004 26.5788521200000005  9.3401858099999995
 -1.0761984000000000 28.2357187399999994  9.3401858099999995
  2.0327268400000000 29.8925853500000009  9.3401858099999995
  5.1416520900000000 31.5494519599999990  9.3401858099999995
  8.2505773300000005 33.2063185700000005  9.3401858099999995
 11.3595025799999991 34.8631851800000021  9.3401858099999995
 14.4684278299999995 36.5200517899999966  9.3401858099999995
 17.5773530700000009 38.1769183999999981  9.3401858099999995
 20.6862783199999996 39.8337850099999997  9.3401858099999995
 23.7952035700000017 41.4906516200000013  9.3401858099999995
 -10.5225481900000002 19.7442773600000017  9.3401858099999995
 -7.4136229499999997 21.4011439699999997  9.3401858099999995
 -4.3046977000000002 23.0580105800000013  9.3401858099999995
 -1.1957724500000000 24.7148771899999993  9.3401858099999995
  1.9131527900000000 26.3717438000000008  9.3401858099999995
  5.0220780400000002 28.0286104099999989  9.3401858099999995
  8.1310032900000007 29.6854770200000004  9.3401858099999995
 11.2399285300000003 31.3423436299999985  9.3401858099999995
 14.3488537800000007 32.9992102399999965  9.3401858099999995
 17.4577790300000011 34.6560768499999980  9.3401858099999995
 20.5667042699999989 36.3129434599999996  9.3401858099999995
 23.6756295200000011 37.9698100700000012  9.3401858099999995
 26.7845547599999989 39.6266766800000028  9.3401858099999995
 -7.5331969900000004 17.8803024199999996  9.3401858099999995
 -4.4242717499999999 19.5371690300000012  9.3401858099999995
 -1.3153465000000000 21.1940356399999992  9.3401858099999995
  1.7935787500000000 22.8509022500000007  9.3401858099999995
  4.9025039899999996 24.5077688599999988  9.3401858099999995
  8.0114292400000000 26.1646354700000003  9.3401858099999995
 11.1203544900000004 27.8215020799999984  9.3401858099999995
 14.2292797300000000 29.4783686899999999  9.3401858099999995
 17.3382049800000004 31.1352353000000015  9.3401858099999995
 20.4471302199999982 32.7921019099999995  9.3401858099999995
 23.5560554700000004 34.4489685200000011  9.3401858099999995
 26.6649807199999991 36.1058351300000027  9.3401858099999995
 29.7739059600000004 37.7627017399999971  9.3401858099999995
 -7.6527710400000002 14.3594608699999995  9.3401858099999995
 -4.5438457899999998 16.0163274800000011  9.3401858099999995
 -1.4349205500000000 17.6731940899999991  9.3401858099999995
  1.6740047000000000 19.3300607000000007  9.3401858099999995
  4.7829299399999998 20.9869273099999987  9.3401858099999995
  7.8918551900000002 22.6437939200000002  9.3401858099999995
 11.0007804399999998 24.3006605399999991  9.3401858099999995
 14.1097056799999994 25.9575271500000007  9.3401858099999995
 17.2186309299999998 27.6143937599999987  9.3401858099999995
 20.3275561799999984 29.2712603700000003  9.3401858099999995
 23.4364814199999998 30.9281269799999983  9.3401858099999995
 26.5454066699999984 32.5849935900000034  9.3401858099999995
 29.6543319200000006 34.2418601999999979  9.3401858099999995
 -4.6634198400000004 12.4954859400000000  9.3401858099999995
 -1.5544945999999999 14.1523525499999998  9.3401858099999995
  1.5544306500000000 15.8092191599999996  9.3401858099999995
  4.6633559000000000 17.4660857699999994  9.3401858099999995
  7.7722811399999996 19.1229523800000010  9.3401858099999995
 10.8812063899999991 20.7798189899999990  9.3401858099999995
 13.9901316399999995 22.4366856000000006  9.3401858099999995
 17.0990568799999991 24.0935522099999986  9.3401858099999995
 20.2079821300000013 25.7504188200000002  9.3401858099999995
 23.3169073800000000 27.4072854300000017  9.3401858099999995
 26.4258326200000013 29.0641520399999997  9.3401858099999995
 29.5347578700000000 30.7210186500000013  9.3401858099999995
 32.6436831099999978 32.3778852599999993  9.3401858099999995
 -4.7829938900000002  8.9746443899999999  9.3401858099999995
 -1.6740686400000000 10.6315109999999997  9.3401858099999995
  1.4348566000000000 12.2883776099999995  9.3401858099999995
  4.5437818500000002 13.9452442199999993  9.3401858099999995
  7.6527070999999998 15.6021108300000009  9.3401858099999995
 10.7616323400000002 17.2589774399999989  9.3401858099999995
 13.8705575900000007 18.9158440500000005  9.3401858099999995
 16.9794828299999985 20.5727106599999985  9.3401858099999995
 20.0884080800000007 22.2295772700000001  9.3401858099999995
 23.1973333299999993 23.8864438800000016  9.3401858099999995
 26.3062585700000007 25.5433104899999996  9.3401858099999995
 29.4151838199999993 27.2001771000000012  9.3401858099999995
 32.5241090700000015 28.8570437099999992  9.3401858099999995
 -1.7936426900000000  7.1106694499999996  9.3401858099999995
  1.3152825500000001  8.7675360599999994  9.3401858099999995
  4.4242077999999996 10.4244026699999992  9.3401858099999995
  7.5331330500000000 12.0812692800000008  9.3401858099999995
 10.6420582899999996 13.7381358900000006  9.3401858099999995
 13.7509835400000000 15.3950025000000004  9.3401858099999995
 16.8599087899999986 17.0518691199999992  9.3401858099999995
 19.9688340300000000 18.7087357300000008  9.3401858099999995
 23.0777592799999987 20.3656023399999988  9.3401858099999995
 26.1866845300000008 22.0224689500000004  9.3401858099999995
 29.2956097699999987 23.6793355599999984  9.3401858099999995
 32.4045350199999973 25.3362021700000000  9.3401858099999995
 35.5134602600000022 26.9930687800000015  9.3401858099999995
 -1.9132167400000000  3.5898279099999999  9.3401858099999995
  1.1957085100000000  5.2466945200000001  9.3401858099999995
  4.3046337499999998  6.9035611299999999  9.3401858099999995
  7.4135590000000002  8.5604277399999997  9.3401858099999995
 10.5224842499999998 10.2172943499999995  9.3401858099999995
 13.6314094899999994 11.8741609599999993  9.3401858099999995
 16.7403347400000015 13.5310275699999991  9.3401858099999995
 19.8492599799999994 15.1878941800000007  9.3401858099999995
 22.9581852300000016 16.8447607899999987  9.3401858099999995
 26.0671104800000002 18.5016274000000003  9.3401858099999995
 29.1760357200000016 20.1584940099999983  9.3401858099999995
 32.2849609700000002 21.8153606199999999  9.3401858099999995
 35.3938862199999988 23.4722272300000014  9.3401858099999995
  1.0761344600000000  1.7258529700000000  9.3401858099999995
  4.1850597000000000  3.3827195799999998  9.3401858099999995
  7.2939849499999996  5.0395861899999996  9.3401858099999995
 10.4029102000000009  6.6964528000000003  9.3401858099999995
 13.5118354400000005  8.3533194099999992  9.3401858099999995
 16.6207606900000009 10.0101860200000008  9.3401858099999995
 19.7296859399999995 11.6670526300000006  9.3401858099999995
 22.8386111800000009 13.3239192400000004  9.3401858099999995
 25.9475364299999995 14.9807858500000002  9.3401858099999995
 29.0564616800000017 16.6376524600000018  9.3401858099999995
 32.1653869200000031 18.2945190699999998  9.3401858099999995
 35.2743121700000017 19.9513856800000013  9.3401858099999995
 38.3832374200000004 21.6082522899999994  9.3401858099999995
 -21.8820827499999986 44.8043848399999973  9.3401858099999995
  7.1744108999999998  1.5187446400000000  9.3401858099999995
 10.2833361500000002  3.1756112500000002  9.3401858099999995
 13.3922614000000006  4.8324778600000000  9.3401858099999995
 16.5011866400000002  6.4893444699999998  9.3401858099999995
 19.6101118899999989  8.1462110800000005  9.3401858099999995
 22.7190371400000011  9.8030776900000003  9.3401858099999995
 25.8279623799999989 11.4599443000000001  9.3401858099999995
 28.9368876300000011 13.1168109200000007  9.3401858099999995
 32.0458128699999989 14.7736775300000005  9.3401858099999995
 35.1547381199999975 16.4305441399999985  9.3401858099999995
 38.2636633700000033 18.0874107500000001  9.3401858099999995
 -15.7838063000000002 44.5972765100000004  9.3401858099999995
 13.2726873500000000  1.3116363200000001  9.3401858099999995
 16.3816125899999996  2.9685029300000001  9.3401858099999995
 19.4905378399999982  4.6253695400000003  9.3401858099999995
 22.5994630900000004  6.2822361500000001  9.3401858099999995
 25.7083883299999982  7.9391027599999999  9.3401858099999995
 28.8173135800000004  9.5959693700000006  9.3401858099999995
 31.9262388299999991 11.2528359800000004  9.3401858099999995
 35.0351640700000004 12.9097025900000002  9.3401858099999995
 38.1440893199999991 14.5665692000000000  9.3401858099999995
 41.2530145699999977 16.2234358100000016  9.3401858099999995
 -9.6855298600000008 44.3901681899999971  9.3401858099999995
 19.3709637900000011  1.1045279900000000  9.3401858099999995
 22.4798890399999998  2.7613946000000000  9.3401858099999995
 25.5888142899999984  4.4182612099999998  9.3401858099999995
 28.6977395299999998  6.0751278199999996  9.3401858099999995
 31.8066647799999984  7.7319944300000003  9.3401858099999995
 34.9155900200000033  9.3888610400000001  9.3401858099999995
 38.0245152700000020 11.0457276499999999  9.3401858099999995
 41.1334405200000006 12.7025942599999997  9.3401858099999995
 -3.5872534100000002 44.1830598600000002  9.3401858099999995
 25.4692402400000013  0.8974196600000000  9.3401858099999995
 28.5781654799999991  2.5542862700000000  9.3401858099999995
 31.6870907300000013  4.2111528800000002  9.3401858099999995
 34.7960159800000000  5.8680194999999999  9.3401858099999995
 37.9049412199999978  7.5248861099999997  9.3401858099999995
 41.0138664700000035  9.1817527200000004  9.3401858099999995
 44.1227917200000022 10.8386193300000002  9.3401858099999995
  2.5110230300000000 43.9759515300000032  9.3401858099999995
 31.5675166800000007  0.6903113400000001  9.3401858099999995
 34.6764419300000029  2.3471779499999998  9.3401858099999995
 37.7853671800000015  4.0040445599999996  9.3401858099999995
 40.8942924199999993  5.6609111700000003  9.3401858099999995
 44.0032176699999980  7.3177777800000001  9.3401858099999995
  8.6092994800000007 43.7688432100000000  9.3401858099999995
 37.6657931299999973  0.4832030100000000  9.3401858099999995
 40.7747183700000022  2.1400696199999998  9.3401858099999995
 43.8836436200000009  3.7969362300000000  9.3401858099999995
 46.9925688699999995  5.4538028399999998  9.3401858099999995
 14.7075759200000000 43.5617348800000030  9.3401858099999995
 43.7640695699999966  0.2760946800000000  9.3401858099999995
 46.8729948200000024  1.9329613000000001  9.3401858099999995
 20.8058523700000002 43.3546265499999990  9.3401858099999995
 49.8623460199999968  0.0689863600000000  9.3401858099999995
 26.9041288099999996 43.1475182300000029  9.3401858099999995
 -21.7625052500000002 41.5596856700000004 16.3453865699999987
 -21.6429311999999996 38.0388441300000011 16.3453865699999987
 -18.6535800000000016 39.9028190599999988 16.3453865699999987
 -15.6642288000000001 41.7667939999999973 16.3453865699999987
 -18.5340059500000010 36.3819775199999995 16.3453865699999987
 -15.5446547600000002 38.2459524499999972 16.3453865699999987
 -12.5553035600000005 40.1099273900000028 16.3453865699999987
 -9.5659523600000007 41.9739023200000005 16.3453865699999987
 -18.4144319100000011 32.8611359699999994 16.3453865699999987
 -15.4250807099999996 34.7251108999999971 16.3453865699999987
 -12.4357295099999998 36.5890858400000027 16.3453865699999987
 -9.4463783100000001 38.4530607800000013 16.3453865699999987
 -6.4570271100000003 40.3170357099999990 16.3453865699999987
 -3.4676759100000001 42.1810106499999975 16.3453865699999987
 -15.3055066600000007 31.2042693600000014 16.3453865699999987
 -12.3161554599999992 33.0682442900000026 16.3453865699999987
 -9.3268042599999994 34.9322192300000012 16.3453865699999987
 -6.3374530599999996 36.7961941699999997 16.3453865699999987
 -3.3481018699999998 38.6601690999999974 16.3453865699999987
 -0.3587506700000000 40.5241440400000030 16.3453865699999987
  2.6306005300000002 42.3881189800000016 16.3453865699999987
 -15.1859326100000001 27.6834278100000013 16.3453865699999987
 -12.1965814100000003 29.5474027499999998 16.3453865699999987
 -9.2072302199999996 31.4113776800000011 16.3453865699999987
 -6.2178790199999998 33.2753526199999996 16.3453865699999987
 -3.2285278200000000 35.1393275599999981 16.3453865699999987
 -0.2391766200000000 37.0033024900000029 16.3453865699999987
  2.7501745799999999 38.8672774300000015 16.3453865699999987
  5.7395257800000001 40.7312523700000000 16.3453865699999987
  8.7288769800000008 42.5952272999999977 16.3453865699999987
 -12.0770073700000005 26.0265611999999997 16.3453865699999987
 -9.0876561700000007 27.8905361399999983 16.3453865699999987
 -6.0983049700000000 29.7545110699999995 16.3453865699999987
 -3.1089537699999998 31.6184860100000016 16.3453865699999987
 -0.1196025700000000 33.4824609499999966 16.3453865699999987
  2.8697486300000001 35.3464358800000014 16.3453865699999987
  5.8590998299999999 37.2104108199999999 16.3453865699999987
  8.8484510200000006 39.0743857599999984 16.3453865699999987
 11.8378022200000004 40.9383606900000032 16.3453865699999987
 14.8271534200000001 42.8023356300000017 16.3453865699999987
 -11.9574333199999998 22.5057196499999996 16.3453865699999987
 -8.9680821200000000 24.3696945900000017 16.3453865699999987
 -5.9787309200000003 26.2336695300000002 16.3453865699999987
 -2.9893797200000001 28.0976444600000015 16.3453865699999987
 -0.0000285200000000 29.9616194000000000 16.3453865699999987
  2.9893226700000000 31.8255943399999985 16.3453865699999987
  5.9786738699999997 33.6895692699999998 16.3453865699999987
  8.9680250699999995 35.5535442099999983 16.3453865699999987
 11.9573762699999993 37.4175191499999968 16.3453865699999987
 14.9467274700000008 39.2814940800000016 16.3453865699999987
 17.9360786700000006 41.1454690200000002 16.3453865699999987
 20.9254298699999985 43.0094439599999987 16.3453865699999987
 -8.8485080699999994 20.8488530400000016 16.3453865699999987
 -5.8591568699999996 22.7128279800000001 16.3453865699999987
 -2.8698056699999999 24.5768029199999987 16.3453865699999987
  0.1195455200000000 26.4407778499999999 16.3453865699999987
  3.1088967200000002 28.3047527899999984 16.3453865699999987
  6.0982479200000004 30.1687277300000005 16.3453865699999987
  9.0875991200000001 32.0327026599999982 16.3453865699999987
 12.0769503199999999 33.8966775999999967 16.3453865699999987
 15.0663015199999997 35.7606525400000024 16.3453865699999987
 18.0556527100000004 37.6246274700000001 16.3453865699999987
 21.0450039099999984 39.4886024099999986 16.3453865699999987
 24.0343551099999999 41.3525773499999971 16.3453865699999987
 -8.7289340200000005 17.3280114999999988 16.3453865699999987
 -5.7395828299999998 19.1919864300000000 16.3453865699999987
 -2.7502316300000000 21.0559613699999986 16.3453865699999987
  0.2391195700000000 22.9199362999999998 16.3453865699999987
  3.2284707699999999 24.7839112399999983 16.3453865699999987
  6.2178219700000001 26.6478861800000004 16.3453865699999987
  9.2071731700000008 28.5118611199999989 16.3453865699999987
 12.1965243700000006 30.3758360500000002 16.3453865699999987
 15.1858755599999995 32.2398109900000023 16.3453865699999987
 18.1752267600000010 34.1037859300000008 16.3453865699999987
 21.1645779599999990 35.9677608599999985 16.3453865699999987
 24.1539291600000006 37.8317357999999970 16.3453865699999987
 27.1432803599999986 39.6957107400000027 16.3453865699999987
 -5.6200087800000000 15.6711448900000008 16.3453865699999987
 -2.6306575799999998 17.5351198199999985 16.3453865699999987
  0.3586936200000000 19.3990947600000005 16.3453865699999987
  3.3480448200000001 21.2630696899999982 16.3453865699999987
  6.3373960199999999 23.1270446300000003 16.3453865699999987
  9.3267472199999997 24.9910195699999989 16.3453865699999987
 12.3160984100000004 26.8549945000000001 16.3453865699999987
 15.3054496100000001 28.7189694399999986 16.3453865699999987
 18.2948008100000017 30.5829443800000007 16.3453865699999987
 21.2841520099999997 32.4469193199999992 16.3453865699999987
 24.2735032100000012 34.3108942499999969 16.3453865699999987
 27.2628544099999992 36.1748691900000026 16.3453865699999987
 -5.5004347300000003 12.1503033400000007 16.3453865699999987
 -2.5110835300000001 14.0142782799999992 16.3453865699999987
  0.4782676700000000 15.8782532100000005 16.3453865699999987
  3.4676188699999999 17.7422281499999990 16.3453865699999987
  6.4569700599999997 19.6062030800000002 16.3453865699999987
  9.4463212599999995 21.4701780199999988 16.3453865699999987
 12.4356724599999993 23.3341529600000008 16.3453865699999987
 15.4250236600000008 25.1981278899999985 16.3453865699999987
 18.4143748599999988 27.0621028300000006 16.3453865699999987
 21.4037260600000003 28.9260777699999991 16.3453865699999987
 24.3930772599999983 30.7900527000000004 16.3453865699999987
 27.3824284499999990 32.6540276400000025 16.3453865699999987
 30.3717796500000006 34.5180025800000010 16.3453865699999987
 -2.3915094799999999 10.4934367300000009 16.3453865699999987
  0.5978417200000000 12.3574116600000004 16.3453865699999987
  3.5871929100000002 14.2213866000000007 16.3453865699999987
  6.5765441100000004 16.0853615400000010 16.3453865699999987
  9.5658953100000002 17.9493364699999987 16.3453865699999987
 12.5552465099999999 19.8133114100000007 16.3453865699999987
 15.5445977099999997 21.6772863499999993 16.3453865699999987
 18.5339489099999994 23.5412612800000005 16.3453865699999987
 21.5233001000000002 25.4052362199999990 16.3453865699999987
 24.5126513000000017 27.2692111600000011 16.3453865699999987
 27.5020024999999997 29.1331860899999988 16.3453865699999987
 30.4913537000000012 30.9971610300000009 16.3453865699999987
 -2.2719354400000000  6.9725951799999999 16.3453865699999987
  0.7174157600000000  8.8365701199999993 16.3453865699999987
  3.7067669599999999 10.7005450500000006 16.3453865699999987
  6.6961181600000002 12.5645199900000009 16.3453865699999987
  9.6854693600000008 14.4284949299999994 16.3453865699999987
 12.6748205600000006 16.2924698600000006 16.3453865699999987
 15.6641717600000003 18.1564447999999992 16.3453865699999987
 18.6535229499999993 20.0204197400000012 16.3453865699999987
 21.6428741500000008 21.8843946699999989 16.3453865699999987
 24.6322253499999988 23.7483696100000010 16.3453865699999987
 27.6215765500000003 25.6123445499999995 16.3453865699999987
 30.6109277499999983 27.4763194800000008 16.3453865699999987
 33.6002789500000034 29.3402944199999993 16.3453865699999987
  0.8369898099999999  5.3157285700000001 16.3453865699999987
  3.8263410100000002  7.1797035100000004 16.3453865699999987
  6.8156922099999999  9.0436784400000008 16.3453865699999987
  9.8050434099999997 10.9076533799999993 16.3453865699999987
 12.7943946099999994 12.7716283199999996 16.3453865699999987
 15.7837458000000002 14.6356032500000008 16.3453865699999987
 18.7730969999999999 16.4995781900000011 16.3453865699999987
 21.7624482000000015 18.3635531299999997 16.3453865699999987
 24.7517993999999995 20.2275280600000009 16.3453865699999987
 27.7411506000000010 22.0915029999999994 16.3453865699999987
 30.7305017999999990 23.9554779400000015 16.3453865699999987
 33.7198529899999997 25.8194528699999992 16.3453865699999987
  0.9565638600000000  1.7948870200000000 16.3453865699999987
  3.9459150599999999  3.6588619599999999 16.3453865699999987
  6.9352662599999997  5.5228368999999997 16.3453865699999987
  9.9246174499999995  7.3868118300000001 16.3453865699999987
 12.9139686499999993  9.2507867699999995 16.3453865699999987
 15.9033198500000008 11.1147617099999998 16.3453865699999987
 18.8926710500000006 12.9787366399999993 16.3453865699999987
 21.8820222499999986 14.8427115799999996 16.3453865699999987
 24.8713734500000001 16.7066865200000017 16.3453865699999987
 27.8607246500000016 18.5706614499999993 16.3453865699999987
 30.8500758399999988 20.4346363900000014 16.3453865699999987
 33.8394270399999968 22.2986113300000000 16.3453865699999987
 36.8287782399999983 24.1625862600000012 16.3453865699999987
  4.0654891099999997  0.1380204100000000 16.3453865699999987
  7.0548403000000004  2.0019953500000001 16.3453865699999987
 10.0441915000000002  3.8659702899999999 16.3453865699999987
 13.0335426999999999  5.7299452200000003 16.3453865699999987
 16.0228938999999997  7.5939201599999997 16.3453865699999987
 19.0122451000000012  9.4578951000000000 16.3453865699999987
 22.0015962999999992 11.3218700299999995 16.3453865699999987
 24.9909474899999999 13.1858449699999998 16.3453865699999987
 27.9802986900000015 15.0498199100000001 16.3453865699999987
 30.9696498899999995 16.9137948400000013 16.3453865699999987
 33.9590010900000010 18.7777697799999999 16.3453865699999987
 36.9483522900000025 20.6417447199999984 16.3453865699999987
 -18.7731540499999987 43.4236606099999989 16.3453865699999987
 10.1637655500000008  0.3451287400000000 16.3453865699999987
 13.1531167500000006  2.2091036800000001 16.3453865699999987
 16.1424679500000003  4.0730786099999996 16.3453865699999987
 19.1318191499999983  5.9370535499999999 16.3453865699999987
 22.1211703399999990  7.8010284900000002 16.3453865699999987
 25.1105215400000006  9.6650034199999997 16.3453865699999987
 28.0998727399999986 11.5289783600000000 16.3453865699999987
 31.0892239400000001 13.3929533000000003 16.3453865699999987
 34.0785751399999981 15.2569282299999998 16.3453865699999987
 37.0679263399999996 17.1209031699999983 16.3453865699999987
 40.0572775400000012 18.9848781100000004 16.3453865699999987
 -12.6748776099999994 43.6307689300000021 16.3453865699999987
 16.2620420000000010  0.5522370700000000 16.3453865699999987
 19.2513931900000017  2.4162119999999998 16.3453865699999987
 22.2407443899999997  4.2801869400000001 16.3453865699999987
 25.2300955900000012  6.1441618800000004 16.3453865699999987
 28.2194467899999992  8.0081368099999999 16.3453865699999987
 31.2087979900000008  9.8721117500000002 16.3453865699999987
 34.1981491900000023 11.7360866900000005 16.3453865699999987
 37.1875003800000030 13.6000616200000000 16.3453865699999987
 40.1768515799999975 15.4640365600000003 16.3453865699999987
 -6.5766011600000001 43.8378772599999991 16.3453865699999987
 22.3603184400000004  0.7593453900000000 16.3453865699999987
 25.3496696399999983  2.6233203299999999 16.3453865699999987
 28.3390208399999999  4.4872952599999998 16.3453865699999987
 31.3283720400000014  6.3512702000000001 16.3453865699999987
 34.3177232299999986  8.2152451400000004 16.3453865699999987
 37.3070744300000001 10.0792200800000007 16.3453865699999987
 40.2964256300000017 11.9431950100000002 16.3453865699999987
 43.2857768300000032 13.8071699500000005 16.3453865699999987
 -0.4783247200000000 44.0449855900000031 16.3453865699999987
 28.4585948900000005  0.9664537200000000 16.3453865699999987
 31.4479460800000012  2.8304286500000000 16.3453865699999987
 34.4372972800000028  4.6944035900000003 16.3453865699999987
 37.4266484799999972  6.5583785299999997 16.3453865699999987
 40.4159996799999988  8.4223534600000001 16.3453865699999987
 43.4053508800000003 10.2863284000000004 16.3453865699999987
  5.6199517300000004 44.2520939099999993 16.3453865699999987
 34.5568713299999999  1.1735620400000000 16.3453865699999987
 37.5462225300000014  3.0375369800000001 16.3453865699999987
 40.5355737300000030  4.9015119199999999 16.3453865699999987
 43.5249249299999974  6.7654868500000003 16.3453865699999987
 46.5142761199999981  8.6294617900000006 16.3453865699999987
 11.7182281699999997 44.4592022400000033 16.3453865699999987
 40.6551477699999992  1.3806703700000000 16.3453865699999987
 43.6444989700000008  3.2446453100000001 16.3453865699999987
 46.6338501700000023  5.1086202399999996 16.3453865699999987
 17.8165046199999999 44.6663105700000003 16.3453865699999987
 46.7534242199999994  1.5877787000000001 16.3453865699999987
 49.7427754200000010  3.4517536299999998 16.3453865699999987
 23.9147810599999993 44.8734188900000035 16.3453865699999987
 -24.8714304999999989 43.2165522800000019 16.3453865699999987
