Mo Te
 1.0000000000000000
    52.4951056666999989    0.0000000000000000    0.0000000000000000
   -26.2475528340000004   45.4620950820999994    0.0000000000000000
     0.0000000000000000    0.0000000000000000   27.0000000000000000
 Mo  Te 
 434 868
Direct
  0.0399385572530907  0.0384024588978391  0.3333333333333333
  0.1182795710780258  0.0752688183446106  0.3333333333333333
  0.0814132116302258  0.1167434727219535  0.3333333333333333
  0.0445468521835257  0.1582181271014961  0.3333333333333333
  0.2334869443488558  0.0706605234140391  0.3333333333333333
  0.1966205849029608  0.1121351777913821  0.3333333333333333
  0.1597542254562607  0.1536098321709247  0.3333333333333333
  0.1228878660084607  0.1950844865482676  0.3333333333333333
  0.0860215065606608  0.2365591409256106  0.3333333333333333
  0.0491551471147658  0.2780337953029535  0.3333333333333333
  0.3486943176215907  0.0660522284834676  0.3333333333333333
  0.3118279581737908  0.1075268828608106  0.3333333333333333
  0.2749615987278958  0.1490015372381535  0.3333333333333333
  0.2380952392811957  0.1904761916176961  0.3333333333333333
  0.2012288798333957  0.2319508459950390  0.3333333333333333
  0.1643625203855958  0.2734255003723820  0.3333333333333333
  0.1274961609397008  0.3149001547497249  0.3333333333333333
  0.0906298014930007  0.3563748091292675  0.3333333333333333
  0.0537634420452007  0.3978494635066105  0.3333333333333333
  0.4639016908943257  0.0614439335528962  0.3333333333333333
  0.4270353314465258  0.1029185879302391  0.3333333333333333
  0.3901689719987259  0.1443932423075820  0.3333333333333333
  0.3533026125509259  0.1858678966849250  0.3333333333333333
  0.3164362531061307  0.2273425510644676  0.3333333333333333
  0.2795698936583307  0.2688172054418105  0.3333333333333333
  0.2427035342105308  0.3102918598191535  0.3333333333333333
  0.2058371747638307  0.3517665141986960  0.3333333333333333
  0.1689708153179357  0.3932411685760390  0.3333333333333333
  0.1321044558701357  0.4347158229533819  0.3333333333333333
  0.0952380964223358  0.4761904773307249  0.3333333333333333
  0.0583717369756357  0.5176651317102675  0.3333333333333333
  0.5791090641651557  0.0568356386223247  0.3333333333333333
  0.5422427047192607  0.0983102929996676  0.3333333333333333
  0.5053763452714608  0.1397849473770106  0.3333333333333333
  0.4685099858236608  0.1812596017543535  0.3333333333333333
  0.4316436263769607  0.2227342561338961  0.3333333333333333
  0.3947772669310657  0.2642089105112390  0.3333333333333333
  0.3579109074832658  0.3056835648885820  0.3333333333333333
  0.3210445480354658  0.3471582192659249  0.3333333333333333
  0.2841781885887657  0.3886328736454675  0.3333333333333333
  0.2473118291428707  0.4301075280228104  0.3333333333333333
  0.2104454696950707  0.4715821824001534  0.3333333333333333
  0.1735791102472708  0.5130568367774964  0.3333333333333333
  0.1367127508005707  0.5545314911570389  0.3333333333333333
  0.0998463913546757  0.5960061455343819  0.3333333333333333
  0.0629800319068757  0.6374807999117248  0.3333333333333333
  0.6943164374367908  0.0522273436895536  0.3333333333333333
  0.6574500779900908  0.0937019980690962  0.3333333333333333
  0.6205837185441957  0.1351766524464391  0.3333333333333333
  0.5837173590963958  0.1766513068237821  0.3333333333333333
  0.5468509996485958  0.2181259612011250  0.3333333333333333
  0.5099846402018957  0.2596006155806675  0.3333333333333333
  0.4731182807560008  0.3010752699580105  0.3333333333333333
  0.4362519213082007  0.3425499243353535  0.3333333333333333
  0.3993855618604008  0.3840245787126964  0.3333333333333333
  0.3625192024137007  0.4254992330922390  0.3333333333333333
  0.3256528429678057  0.4669738874695819  0.3333333333333333
  0.2887864835200058  0.5084485418469249  0.3333333333333333
  0.2519201240733057  0.5499231962264675  0.3333333333333333
  0.2150537646255057  0.5913978506038104  0.3333333333333333
  0.1781874051796107  0.6328725049811533  0.3333333333333333
  0.1413210457318108  0.6743471593584963  0.3333333333333333
  0.1044546862851106  0.7158218137380388  0.3333333333333333
  0.0675883268373107  0.7572964681153819  0.3333333333333333
  0.8095238107095257  0.0476190487589821  0.3333333333333333
  0.7726574512628257  0.0890937031385247  0.3333333333333333
  0.7357910918150258  0.1305683575158676  0.3333333333333333
  0.6989247323691309  0.1720430118932106  0.3333333333333333
  0.6620583729213309  0.2135176662705535  0.3333333333333333
  0.6251920134746306  0.2549923206500961  0.3333333333333333
  0.5883256540268308  0.2964669750274390  0.3333333333333333
  0.5514592945809358  0.3379416294047820  0.3333333333333333
  0.5145929351331358  0.3794162837821249  0.3333333333333333
  0.4777265756864357  0.4208909381616675  0.3333333333333333
  0.4408602162386357  0.4623655925390104  0.3333333333333333
  0.4039938567927407  0.5038402469163534  0.3333333333333333
  0.3671274973449408  0.5453149012936963  0.3333333333333333
  0.3302611378982407  0.5867895556732390  0.3333333333333333
  0.2933947784504407  0.6282642100505819  0.3333333333333333
  0.2565284190045458  0.6697388644279249  0.3333333333333333
  0.2196620595567458  0.7112135188052677  0.3333333333333333
  0.1827957001100456  0.7526881731848103  0.3333333333333333
  0.1459293406622457  0.7941628275621533  0.3333333333333333
  0.1090629812163507  0.8356374819394962  0.3333333333333333
  0.0721966217685508  0.8771121363168392  0.3333333333333333
  0.9247311839803558  0.0430107538284106  0.3333333333333333
  0.8878648245344608  0.0844854082057536  0.3333333333333333
  0.8509984650877608  0.1259600625852961  0.3333333333333333
  0.8141321056399609  0.1674347169626391  0.3333333333333333
  0.7772657461921609  0.2089093713399820  0.3333333333333333
  0.7403993867462659  0.2503840257173250  0.3333333333333333
  0.7035330272995657  0.2918586800968676  0.3333333333333333
  0.6666666678517658  0.3333333344742105  0.3333333333333333
  0.6298003084039658  0.3748079888515534  0.3333333333333333
  0.5929339489580707  0.4162826432288964  0.3333333333333333
  0.5560675895113707  0.4577572976084390  0.3333333333333333
  0.5192012300635708  0.4992319519857819  0.3333333333333333
  0.4823348706157708  0.5407066063631248  0.3333333333333333
  0.4454685111698758  0.5821812607404678  0.3333333333333333
  0.4086021517231757  0.6236559151200104  0.3333333333333333
  0.3717357922753758  0.6651305694973534  0.3333333333333333
  0.3348694328275757  0.7066052238746962  0.3333333333333333
  0.2980030733827806  0.7480798782542389  0.3333333333333333
  0.2611367139349806  0.7895545326315817  0.3333333333333333
  0.2242703544871808  0.8310291870089248  0.3333333333333333
  0.1874039950393807  0.8725038413862676  0.3333333333333333
  0.1505376355945856  0.9139784957658104  0.3333333333333333
  0.1136712761467856  0.9554531501431531  0.3333333333333333
  0.0768049166989858  0.9969278045204962  0.3333333333333333
  0.0030721978052908  0.0798771132751821  0.3333333333333333
  0.9662058383604957  0.1213517676547247  0.3333333333333333
  0.9293394789126957  0.1628264220320676  0.3333333333333333
  0.8924731194648958  0.2043010764094106  0.3333333333333333
  0.8556067600170958  0.2457757307867535  0.3333333333333333
  0.8187404005723007  0.2872503851662961  0.3333333333333333
  0.7818740411245008  0.3287250395436390  0.3333333333333333
  0.7450076816767008  0.3701996939209820  0.3333333333333333
  0.7081413222289008  0.4116743482983249  0.3333333333333333
  0.6712749627841057  0.4531490026778675  0.3333333333333333
  0.6344086033363058  0.4946236570552104  0.3333333333333333
  0.5975422438885059  0.5360983114325534  0.3333333333333333
  0.5606758844407059  0.5775729658098964  0.3333333333333333
  0.5238095249959107  0.6190476201894389  0.3333333333333333
  0.4869431655481107  0.6605222745667818  0.3333333333333333
  0.4500768061003108  0.7019969289441248  0.3333333333333333
  0.4132104466525108  0.7434715833214677  0.3333333333333333
  0.3763440872077157  0.7849462377010104  0.3333333333333333
  0.3394777277599157  0.8264208920783532  0.3333333333333333
  0.3026113683121158  0.8678955464556962  0.3333333333333333
  0.2657450088643158  0.9093702008330391  0.3333333333333333
  0.2288786494195206  0.9508448552125818  0.3333333333333333
  0.1920122899717207  0.9923195095899247  0.3333333333333333
  0.1551459305239208  0.0337941639672677  0.3333333333333333
  0.0076804927357258  0.1996927814788391  0.3333333333333333
  0.9708141332898308  0.2411674358561820  0.3333333333333333
  0.9339477738420308  0.2826420902335250  0.3333333333333333
  0.8970814143972357  0.3241167446130676  0.3333333333333333
  0.8602150549494357  0.3655913989904105  0.3333333333333333
  0.8233486955016358  0.4070660533677534  0.3333333333333333
  0.7864823360538358  0.4485407077450964  0.3333333333333333
  0.7496159766090408  0.4900153621246390  0.3333333333333333
  0.7127496171612406  0.5314900165019819  0.3333333333333333
  0.6758832577134407  0.5729646708793248  0.3333333333333333
  0.6390168982656408  0.6144393252566678  0.3333333333333333
  0.6021505388208457  0.6559139796362103  0.3333333333333333
  0.5652841793730458  0.6973886340135533  0.3333333333333333
  0.5284178199252458  0.7388632883908962  0.3333333333333333
  0.4915514604774459  0.7803379427682393  0.3333333333333333
  0.4546851010326506  0.8218125971477818  0.3333333333333333
  0.4178187415848507  0.8632872515251246  0.3333333333333333
  0.3809523821370508  0.9047619059024677  0.3333333333333333
  0.3440860226903507  0.9462365602820102  0.3333333333333333
  0.3072196632444557  0.9877112146593533  0.3333333333333333
  0.2703533037966557  0.0291858690366962  0.3333333333333333
  0.0122887876680657  0.3195084496824961  0.3333333333333333
  0.9754224282202658  0.3609831040598390  0.3333333333333333
  0.9385560687743708  0.4024577584371820  0.3333333333333333
  0.9016897093265707  0.4439324128145249  0.3333333333333333
  0.8648233498798706  0.4854070671940675  0.3333333333333333
  0.8279569904320707  0.5268817215714104  0.3333333333333333
  0.7910906309861758  0.5683563759487533  0.3333333333333333
  0.7542242715383758  0.6098310303260963  0.3333333333333333
  0.7173579120916758  0.6513056847056389  0.3333333333333333
  0.6804915526438758  0.6927803390829819  0.3333333333333333
  0.6436251931979807  0.7342549934603247  0.3333333333333333
  0.6067588337501808  0.7757296478376677  0.3333333333333333
  0.5698924743034807  0.8172043022172103  0.3333333333333333
  0.5330261148556807  0.8586789565945533  0.3333333333333333
  0.4961597554097857  0.9001536109718962  0.3333333333333333
  0.4592933959619858  0.9416282653492392  0.3333333333333333
  0.4224270365152856  0.9831029197287817  0.3333333333333333
  0.3855606770693906  0.0245775741061247  0.3333333333333333
  0.0168970825974008  0.4393241178839534  0.3333333333333333
  0.9800307231515057  0.4807987722612964  0.3333333333333333
  0.9431643637048057  0.5222734266408390  0.3333333333333333
  0.9062980042570058  0.5637480810181819  0.3333333333333333
  0.8694316448111108  0.6052227353955248  0.3333333333333333
  0.8325652853633108  0.6466973897728677  0.3333333333333333
  0.7956989259166107  0.6881720441524104  0.3333333333333333
  0.7588325664688108  0.7296466985297533  0.3333333333333333
  0.7219662070229157  0.7711213529070962  0.3333333333333333
  0.6850998475751158  0.8125960072844391  0.3333333333333333
  0.6482334881284156  0.8540706616639817  0.3333333333333333
  0.6113671286806157  0.8955453160413247  0.3333333333333333
  0.5745007692347207  0.9370199704186676  0.3333333333333333
  0.5376344097869208  0.9784946247960106  0.3333333333333333
  0.5007680503391209  0.0199692791733536  0.3333333333333333
  0.0215053775297407  0.5591397860876104  0.3333333333333333
  0.9846390180819408  0.6006144404649534  0.3333333333333333
  0.9477726586360457  0.6420890948422963  0.3333333333333333
  0.9109062991893456  0.6835637492218389  0.3333333333333333
  0.8740399397415457  0.7250384035991818  0.3333333333333333
  0.8371735802937458  0.7665130579765248  0.3333333333333333
  0.8003072208478507  0.8079877123538677  0.3333333333333333
  0.7634408614011506  0.8494623667334104  0.3333333333333333
  0.7265745019533507  0.8909370211107532  0.3333333333333333
  0.6897081425055508  0.9324116754880962  0.3333333333333333
  0.6528417830596558  0.9738863298654391  0.3333333333333333
  0.6159754236118559  0.0153609842427821  0.3333333333333333
  0.0261136724590758  0.6789554542890678  0.3333333333333333
  0.9892473130142807  0.7204301086686103  0.3333333333333333
  0.9523809535664808  0.7619047630459532  0.3333333333333333
  0.9155145941186809  0.8033794174232962  0.3333333333333333
  0.8786482346727857  0.8448540718006391  0.3333333333333333
  0.8417818752260857  0.8863287261801818  0.3333333333333333
  0.8049155157782857  0.9278033805575246  0.3333333333333333
  0.7680491563304859  0.9692780349348676  0.3333333333333333
  0.7311827968845908  0.0107526893122106  0.3333333333333333
  0.0307219673914157  0.7987711224927247  0.3333333333333333
  0.9938556079436158  0.8402457768700677  0.3333333333333333
  0.9569892484969157  0.8817204312496102  0.3333333333333333
  0.9201228890510207  0.9231950856269533  0.3333333333333333
  0.8832565296032208  0.9646697400042962  0.3333333333333333
  0.8463901701573256  0.0061443943816391  0.3333333333333333
  0.0353302623218507  0.9185867906963817  0.3333333333333333
  0.9984639028759557  0.9600614450737247  0.3333333333333333
  0.9615975434281557  0.0015360994510677  0.3333333333333333
  0.0384024588963440  0.0399385572534887  0.6666666666666666
  0.1582181270997645  0.0445468521840602  0.6666666666666666
  0.1167434727206090  0.0814132116308317  0.6666666666666666
  0.0752688183433584  0.1182795710776032  0.6666666666666666
  0.2780337953012801  0.0491551471146317  0.6666666666666666
  0.2365591409251294  0.0860215065636028  0.6666666666666666
  0.1950844865478788  0.1228878660103743  0.6666666666666666
  0.1536098321687233  0.1597542254571457  0.6666666666666666
  0.1121351777914727  0.1966205849039172  0.6666666666666666
  0.0706605234123172  0.2334869443506887  0.6666666666666666
  0.3978494635058005  0.0537634420474028  0.6666666666666666
  0.3563748091285499  0.0906298014941743  0.6666666666666666
  0.3149001547493944  0.1274961609409458  0.6666666666666666
  0.2734255003721438  0.1643625203877172  0.6666666666666666
  0.2319508459929883  0.2012288798344887  0.6666666666666666
  0.1904761916157377  0.2380952392812601  0.6666666666666666
  0.1490015372365822  0.2749615987280316  0.6666666666666666
  0.1075268828593316  0.3118279581748031  0.6666666666666666
  0.0660522284820810  0.3486943176215745  0.6666666666666666
  0.5176651317092210  0.0583717369779743  0.6666666666666666
  0.4761904773300655  0.0952380964247458  0.6666666666666666
  0.4347158229528150  0.1321044558715172  0.6666666666666666
  0.3932411685736594  0.1689708153182887  0.6666666666666666
  0.3517665141964088  0.2058371747650602  0.6666666666666666
  0.3102918598191583  0.2427035342118316  0.6666666666666666
  0.2688172054400028  0.2795698936586031  0.6666666666666666
  0.2273425510627522  0.3164362531053745  0.6666666666666666
  0.1858678966846965  0.3533026125543457  0.6666666666666666
  0.1443932423074459  0.3901689720011172  0.6666666666666666
  0.1029185879282904  0.4270353314478886  0.6666666666666666
  0.0614439335510398  0.4639016908946601  0.6666666666666666
  0.6374807999107366  0.0629800319085458  0.6666666666666666
  0.5960061455334862  0.0998463913553172  0.6666666666666666
  0.5545314911543305  0.1367127508020887  0.6666666666666666
  0.5130568367770800  0.1735791102488602  0.6666666666666666
  0.4715821823998294  0.2104454696956316  0.6666666666666666
  0.4301075280206739  0.2473118291424031  0.6666666666666666
  0.3886328736445231  0.2841781885913742  0.6666666666666666
  0.3471582192653676  0.3210445480381456  0.6666666666666666
  0.3056835648881170  0.3579109074849172  0.6666666666666666
  0.2642089105089615  0.3947772669316886  0.6666666666666666
  0.2227342561317109  0.4316436263784601  0.6666666666666666
  0.1812596017544604  0.4685099858252316  0.6666666666666666
  0.1397849473753048  0.5053763452720030  0.6666666666666666
  0.0983102929980542  0.5422427047187744  0.6666666666666666
  0.0568356386188987  0.5791090641655460  0.6666666666666666
  0.7572964681141573  0.0675883268391173  0.6666666666666666
  0.7158218137350018  0.1044546862858887  0.6666666666666666
  0.6743471593577512  0.1413210457326602  0.6666666666666666
  0.6328725049805005  0.1781874051794316  0.6666666666666666
  0.5913978506013450  0.2150537646262031  0.6666666666666666
  0.5499231962251943  0.2519201240751742  0.6666666666666666
  0.5084485418460388  0.2887864835219457  0.6666666666666666
  0.4669738874687882  0.3256528429687172  0.6666666666666666
  0.4254992330896327  0.3625192024154886  0.6666666666666666
  0.3840245787123820  0.3993855618622601  0.6666666666666666
  0.3425499243351315  0.4362519213090316  0.6666666666666666
  0.3010752699559760  0.4731182807558030  0.6666666666666666
  0.2596006155787254  0.5099846402025745  0.6666666666666666
  0.2181259611995699  0.5468509996493459  0.6666666666666666
  0.1766513068234191  0.5837173590983170  0.6666666666666666
  0.1351766524461685  0.6205837185450885  0.6666666666666666
  0.0937019980670129  0.6574500779918599  0.6666666666666666
  0.0522273436897624  0.6943164374386314  0.6666666666666666
  0.8771121363156728  0.0721966217696887  0.6666666666666666
  0.8356374819384222  0.1090629812164602  0.6666666666666666
  0.7941628275611717  0.1459293406632317  0.6666666666666666
  0.7526881731820162  0.1827957001100031  0.6666666666666666
  0.7112135188058654  0.2196620595589742  0.6666666666666666
  0.6697388644267099  0.2565284190057457  0.6666666666666666
  0.6282642100494592  0.2933947784525172  0.6666666666666666
  0.5867895556722087  0.3302611378992886  0.6666666666666666
  0.5453149012930532  0.3671274973460601  0.6666666666666666
  0.5038402469158026  0.4039938567928316  0.6666666666666666
  0.4623655925366471  0.4408602162396030  0.6666666666666666
  0.4208909381593965  0.4777265756863745  0.6666666666666666
  0.3794162837802410  0.5145929351331460  0.6666666666666666
  0.3379416294040902  0.5514592945821171  0.6666666666666666
  0.2964669750268396  0.5883256540288885  0.6666666666666666
  0.2549923206476841  0.6251920134756600  0.6666666666666666
  0.2135176662704335  0.6620583729224314  0.6666666666666666
  0.1720430118912780  0.6989247323692029  0.6666666666666666
  0.1305683575140275  0.7357910918159745  0.6666666666666666
  0.0890937031367769  0.7726574512627459  0.6666666666666666
  0.0476190487576214  0.8095238107095174  0.6666666666666666
  0.9969278045190935  0.0768049167002602  0.6666666666666666
  0.9554531501418430  0.1136712761470317  0.6666666666666666
  0.9139784957626874  0.1505376355938031  0.6666666666666666
  0.8725038413865365  0.1874039950427742  0.6666666666666666
  0.8310291870073809  0.2242703544895457  0.6666666666666666
  0.7895545326301304  0.2611367139363172  0.6666666666666666
  0.7480798782528799  0.2980030733830887  0.6666666666666666
  0.7066052238737244  0.3348694328298601  0.6666666666666666
  0.6651305694964739  0.3717357922766316  0.6666666666666666
  0.6236559151173183  0.4086021517234030  0.6666666666666666
  0.5821812607400676  0.4454685111701745  0.6666666666666666
  0.5407066063620120  0.4823348706191456  0.6666666666666666
  0.4992319519847613  0.5192012300659170  0.6666666666666666
  0.4577572976075108  0.5560675895126885  0.6666666666666666
  0.4162826432283552  0.5929339489594599  0.6666666666666666
  0.3748079888511047  0.6298003084062315  0.6666666666666666
  0.3333333344719492  0.6666666678530030  0.6666666666666666
  0.2918586800946986  0.7035330272997744  0.6666666666666666
  0.2503840257174479  0.7403993867465458  0.6666666666666666
  0.2089093713382925  0.7772657461933173  0.6666666666666666
  0.1674347169621417  0.8141321056422884  0.6666666666666666
  0.1259600625829862  0.8509984650890599  0.6666666666666666
  0.0844854082057356  0.8878648245358314  0.6666666666666666
  0.0430107538265801  0.9247311839826028  0.6666666666666666
  0.0337941639672076  0.1551459305265742  0.6666666666666666
  0.9923195095880522  0.1920122899733457  0.6666666666666666
  0.9508448552108016  0.2288786494201172  0.6666666666666666
  0.9093702008335509  0.2657450088668887  0.6666666666666666
  0.8678955464543956  0.3026113683136601  0.6666666666666666
  0.8264208920771449  0.3394777277604316  0.6666666666666666
  0.7849462376979893  0.3763440872072031  0.6666666666666666
  0.7434715833207388  0.4132104466539746  0.6666666666666666
  0.7019969289445881  0.4500768061029456  0.6666666666666666
  0.6605222745654326  0.4869431655497171  0.6666666666666666
  0.6190476201881820  0.5238095249964886  0.6666666666666666
  0.5775729658090264  0.5606758844432601  0.6666666666666666
  0.5360983114317758  0.5975422438900315  0.6666666666666666
  0.4946236570526203  0.6344086033368029  0.6666666666666666
  0.4531490026753698  0.6712749627835745  0.6666666666666666
  0.4116743482981192  0.7081413222303459  0.6666666666666666
  0.3701996939189636  0.7450076816771174  0.6666666666666666
  0.3287250395428128  0.7818740411260885  0.6666666666666666
  0.2872503851636574  0.8187404005728600  0.6666666666666666
  0.2457757307864068  0.8556067600196314  0.6666666666666666
  0.2043010764072513  0.8924731194664030  0.6666666666666666
  0.1628264220300007  0.9293394789131744  0.6666666666666666
  0.1213517676527501  0.9662058383599459  0.6666666666666666
  0.0798771132754995  0.0030721978067173  0.6666666666666666
  0.0291858690350666  0.2703533037974601  0.6666666666666666
  0.9877112146578161  0.3072196632442316  0.6666666666666666
  0.9462365602786605  0.3440860226910031  0.6666666666666666
  0.9047619059014100  0.3809523821377745  0.6666666666666666
  0.8632872515252591  0.4178187415867456  0.6666666666666666
  0.8218125971461038  0.4546851010335171  0.6666666666666666
  0.7803379427688530  0.4915514604802886  0.6666666666666666
  0.7388632883896975  0.5284178199270601  0.6666666666666666
  0.6973886340124470  0.5652841793738316  0.6666666666666666
  0.6559139796332915  0.6021505388206030  0.6666666666666666
  0.6144393252560409  0.6390168982673745  0.6666666666666666
  0.5729646708787902  0.6758832577141459  0.6666666666666666
  0.5314900164996348  0.7127496171609173  0.6666666666666666
  0.4900153621234840  0.7496159766098884  0.6666666666666666
  0.4485407077443285  0.7864823360566600  0.6666666666666666
  0.4070660533670779  0.8233486955034314  0.6666666666666666
  0.3655913989898273  0.8602150549502029  0.6666666666666666
  0.3241167446106718  0.8970814143969743  0.6666666666666666
  0.2826420902334212  0.9339477738437457  0.6666666666666666
  0.2411674358542656  0.9708141332905172  0.6666666666666666
  0.1996927814770151  0.0076804927372888  0.6666666666666666
  0.0245775741040254  0.3855606770705457  0.6666666666666666
  0.9831029197267748  0.4224270365173172  0.6666666666666666
  0.9416282653495243  0.4592933959640886  0.6666666666666666
  0.9001536109703687  0.4961597554108600  0.6666666666666666
  0.8586789565931181  0.5330261148576315  0.6666666666666666
  0.8172043022139626  0.5698924743044030  0.6666666666666666
  0.7757296478367119  0.6067588337511745  0.6666666666666666
  0.7342549934594614  0.6436251931979460  0.6666666666666666
  0.6927803390803058  0.6804915526447174  0.6666666666666666
  0.6513056847041552  0.7173579120936885  0.6666666666666666
  0.6098310303249996  0.7542242715404600  0.6666666666666666
  0.5683563759477490  0.7910906309872314  0.6666666666666666
  0.5268817215704985  0.8279569904340029  0.6666666666666666
  0.4854070671913429  0.8648233498807744  0.6666666666666666
  0.4439324128140924  0.9016897093275459  0.6666666666666666
  0.4024577584349368  0.9385560687743173  0.6666666666666666
  0.3609831040576862  0.9754224282210888  0.6666666666666666
  0.3195084496804357  0.0122887876678602  0.6666666666666666
  0.0199692791737892  0.5007680503414316  0.6666666666666666
  0.9784946247965387  0.5376344097882030  0.6666666666666666
  0.9370199704173832  0.5745007692349745  0.6666666666666666
  0.8955453160401325  0.6113671286817459  0.6666666666666666
  0.8540706616620769  0.6482334881307170  0.6666666666666666
  0.8125960072848262  0.6850998475774884  0.6666666666666666
  0.7711213529056707  0.7219662070242600  0.6666666666666666
  0.7296466985284201  0.7588325664710314  0.6666666666666666
  0.6881720441511696  0.7956989259178029  0.6666666666666666
  0.6466973897720141  0.8325652853645743  0.6666666666666666
  0.6052227353947635  0.8694316448113458  0.6666666666666666
  0.5637480810156079  0.9062980042581172  0.6666666666666666
  0.5222734266383574  0.9431643637048888  0.6666666666666666
  0.4807987722622066  0.9800307231538599  0.6666666666666666
  0.4393241178819512  0.0168970825984317  0.6666666666666666
  0.0153609842427479  0.6159754236145170  0.6666666666666666
  0.9738863298654974  0.6528417830612885  0.6666666666666666
  0.9324116754863419  0.6897081425080599  0.6666666666666666
  0.8909370211090913  0.7265745019548315  0.6666666666666666
  0.8494623667318407  0.7634408614016029  0.6666666666666666
  0.8079877123526852  0.8003072208483744  0.6666666666666666
  0.7665130579754347  0.8371735802951459  0.6666666666666666
  0.7250384035962791  0.8740399397419173  0.6666666666666666
  0.6835637492190286  0.9109062991886888  0.6666666666666666
  0.6420890948428778  0.9477726586376599  0.6666666666666666
  0.6006144404637223  0.9846390180844314  0.6666666666666666
  0.5591397860864716  0.0215053775312028  0.6666666666666666
  0.0107526893106068  0.7311827968854029  0.6666666666666666
  0.9692780349333564  0.7680491563321743  0.6666666666666666
  0.9278033805561058  0.8049155157789458  0.6666666666666666
  0.8863287261769501  0.8417818752257172  0.6666666666666666
  0.8448540717996996  0.8786482346724888  0.6666666666666666
  0.8033794174235488  0.9155145941214599  0.6666666666666666
  0.7619047630443934  0.9523809535682314  0.6666666666666666
  0.7204301086671427  0.9892473130150028  0.6666666666666666
  0.6789554542898922  0.0261136724617743  0.6666666666666666
  0.0061443943814706  0.8463901701584885  0.6666666666666666
  0.9646697400042200  0.8832565296052599  0.6666666666666666
  0.9231950856250645  0.9201228890520314  0.6666666666666666
  0.8817204312478140  0.9569892484988028  0.6666666666666666
  0.8402457768686584  0.9938556079455744  0.6666666666666666
  0.7987711224914078  0.0307219673923458  0.6666666666666666
  0.0015360994493295  0.9615975434293743  0.6666666666666666
  0.9600614450720790  0.9984639028761457  0.6666666666666666
  0.9185867906948283  0.0353302623229173  0.6666666666666666
  0.0015360983554238  0.0399385572556884  0.2670508862592593
  0.0015360983554238  0.0399385572556884  0.3996157804074074
  0.0798771121803588  0.0768049167024598  0.2670508862592593
  0.0798771121803588  0.0768049167024598  0.3996157804074074
  0.0430107527344638  0.1182795710798028  0.2670508862592593
  0.0430107527344638  0.1182795710798028  0.3996157804074074
  0.0061443932866638  0.1597542254571457  0.2670508862592593
  0.0061443932866638  0.1597542254571457  0.3996157804074074
  0.1950844854530938  0.0721966217718884  0.2670508862592593
  0.1950844854530938  0.0721966217718884  0.3996157804074074
  0.1582181260052938  0.1136712761492313  0.2670508862592593
  0.1582181260052938  0.1136712761492313  0.3996157804074074
  0.1213517665593988  0.1551459305265742  0.2670508862592593
  0.1213517665593988  0.1551459305265742  0.3996157804074074
  0.0844854071115989  0.1966205849039172  0.2670508862592593
  0.0844854071115989  0.1966205849039172  0.3996157804074074
  0.0476190476648987  0.2380952392834598  0.2670508862592593
  0.0476190476648987  0.2380952392834598  0.3996157804074074
  0.0107526882170988  0.2795698936608027  0.2670508862592593
  0.0107526882170988  0.2795698936608027  0.3996157804074074
  0.3102918587247289  0.0675883268391173  0.2670508862592593
  0.3102918587247289  0.0675883268391173  0.3996157804074074
  0.2734254992780288  0.1090629812186598  0.2670508862592593
  0.2734254992780288  0.1090629812186598  0.3996157804074074
  0.2365591398302288  0.1505376355960028  0.2670508862592593
  0.2365591398302288  0.1505376355960028  0.3996157804074074
  0.1996927803843339  0.1920122899733457  0.2670508862592593
  0.1996927803843339  0.1920122899733457  0.3996157804074074
  0.1628264209376337  0.2334869443528883  0.2670508862592593
  0.1628264209376337  0.2334869443528883  0.3996157804074074
  0.1259600614898337  0.2749615987302312  0.2670508862592593
  0.1259600614898337  0.2749615987302312  0.3996157804074074
  0.0890937020420338  0.3164362531075742  0.2670508862592593
  0.0890937020420338  0.3164362531075742  0.3996157804074074
  0.0522273425961388  0.3579109074849172  0.2670508862592593
  0.0522273425961388  0.3579109074849172  0.3996157804074074
  0.0153609831494387  0.3993855618644597  0.2670508862592593
  0.0153609831494387  0.3993855618644597  0.3996157804074074
  0.4254992319955589  0.0629800319085458  0.2670508862592593
  0.4254992319955589  0.0629800319085458  0.3996157804074074
  0.3886328725507637  0.1044546862880883  0.2670508862592593
  0.3886328725507637  0.1044546862880883  0.3996157804074074
  0.3517665131029638  0.1459293406654313  0.2670508862592593
  0.3517665131029638  0.1459293406654313  0.3996157804074074
  0.3149001536551638  0.1874039950427742  0.2670508862592593
  0.3149001536551638  0.1874039950427742  0.3996157804074074
  0.2780337942073639  0.2288786494201172  0.2670508862592593
  0.2780337942073639  0.2288786494201172  0.3996157804074074
  0.2411674347625687  0.2703533037996598  0.2670508862592593
  0.2411674347625687  0.2703533037996598  0.3996157804074074
  0.2043010753147688  0.3118279581770027  0.2670508862592593
  0.2043010753147688  0.3118279581770027  0.3996157804074074
  0.1674347158669689  0.3533026125543457  0.2670508862592593
  0.1674347158669689  0.3533026125543457  0.3996157804074074
  0.1305683564191689  0.3947772669316886  0.2670508862592593
  0.1305683564191689  0.3947772669316886  0.3996157804074074
  0.0937019969743737  0.4362519213112311  0.2670508862592593
  0.0937019969743737  0.4362519213112311  0.3996157804074074
  0.0568356375265738  0.4777265756885741  0.2670508862592593
  0.0568356375265738  0.4777265756885741  0.3996157804074074
  0.0199692780787738  0.5192012300659170  0.2670508862592593
  0.0199692780787738  0.5192012300659170  0.3996157804074074
  0.5407066052682939  0.0583717369779743  0.2670508862592593
  0.5407066052682939  0.0583717369779743  0.3996157804074074
  0.5038402458204939  0.0998463913553172  0.2670508862592593
  0.5038402458204939  0.0998463913553172  0.3996157804074074
  0.4669738863756988  0.1413210457348598  0.2670508862592593
  0.4669738863756988  0.1413210457348598  0.3996157804074074
  0.4301075269278988  0.1827957001122028  0.2670508862592593
  0.4301075269278988  0.1827957001122028  0.3996157804074074
  0.3932411674800989  0.2242703544895457  0.2670508862592593
  0.3932411674800989  0.2242703544895457  0.3996157804074074
  0.3563748080322989  0.2657450088668887  0.2670508862592593
  0.3563748080322989  0.2657450088668887  0.3996157804074074
  0.3195084485875038  0.3072196632464312  0.2670508862592593
  0.3195084485875038  0.3072196632464312  0.3996157804074074
  0.2826420891397038  0.3486943176237742  0.2670508862592593
  0.2826420891397038  0.3486943176237742  0.3996157804074074
  0.2457757296919039  0.3901689720011172  0.2670508862592593
  0.2457757296919039  0.3901689720011172  0.3996157804074074
  0.2089093702452037  0.4316436263806597  0.2670508862592593
  0.2089093702452037  0.4316436263806597  0.3996157804074074
  0.1720430107993087  0.4731182807580026  0.2670508862592593
  0.1720430107993087  0.4731182807580026  0.3996157804074074
  0.1351766513515087  0.5145929351353455  0.2670508862592593
  0.1351766513515087  0.5145929351353455  0.3996157804074074
  0.0983102919037088  0.5560675895126885  0.2670508862592593
  0.0983102919037088  0.5560675895126885  0.3996157804074074
  0.0614439324570087  0.5975422438922311  0.2670508862592593
  0.0614439324570087  0.5975422438922311  0.3996157804074074
  0.0245775730111137  0.6390168982695741  0.2670508862592593
  0.0245775730111137  0.6390168982695741  0.3996157804074074
  0.6559139785410290  0.0537634420474028  0.2670508862592593
  0.6559139785410290  0.0537634420474028  0.3996157804074074
  0.6190476190932288  0.0952380964247458  0.2670508862592593
  0.6190476190932288  0.0952380964247458  0.3996157804074074
  0.5821812596465288  0.1367127508042884  0.2670508862592593
  0.5821812596465288  0.1367127508042884  0.3996157804074074
  0.5453149002006337  0.1781874051816313  0.2670508862592593
  0.5453149002006337  0.1781874051816313  0.3996157804074074
  0.5084485407528337  0.2196620595589742  0.2670508862592593
  0.5084485407528337  0.2196620595589742  0.3996157804074074
  0.4715821813050339  0.2611367139363172  0.2670508862592593
  0.4715821813050339  0.2611367139363172  0.3996157804074074
  0.4347158218583338  0.3026113683158598  0.2670508862592593
  0.4347158218583338  0.3026113683158598  0.3996157804074074
  0.3978494624124387  0.3440860226932027  0.2670508862592593
  0.3978494624124387  0.3440860226932027  0.3996157804074074
  0.3609831029646388  0.3855606770705457  0.2670508862592593
  0.3609831029646388  0.3855606770705457  0.3996157804074074
  0.3241167435168389  0.4270353314478886  0.2670508862592593
  0.3241167435168389  0.4270353314478886  0.3996157804074074
  0.2872503840701388  0.4685099858274311  0.2670508862592593
  0.2872503840701388  0.4685099858274311  0.3996157804074074
  0.2503840246242437  0.5099846402047741  0.2670508862592593
  0.2503840246242437  0.5099846402047741  0.3996157804074074
  0.2135176651764438  0.5514592945821171  0.2670508862592593
  0.2135176651764438  0.5514592945821171  0.3996157804074074
  0.1766513057286438  0.5929339489594599  0.2670508862592593
  0.1766513057286438  0.5929339489594599  0.3996157804074074
  0.1397849462819437  0.6344086033390026  0.2670508862592593
  0.1397849462819437  0.6344086033390026  0.3996157804074074
  0.1029185868360487  0.6758832577163455  0.2670508862592593
  0.1029185868360487  0.6758832577163455  0.3996157804074074
  0.0660522273882488  0.7173579120936885  0.2670508862592593
  0.0660522273882488  0.7173579120936885  0.3996157804074074
  0.0291858679404488  0.7588325664710314  0.2670508862592593
  0.0291858679404488  0.7588325664710314  0.3996157804074074
  0.7711213518118588  0.0491551471168313  0.2670508862592593
  0.7711213518118588  0.0491551471168313  0.3996157804074074
  0.7342549923659639  0.0906298014941743  0.2670508862592593
  0.7342549923659639  0.0906298014941743  0.3996157804074074
  0.6973886329181640  0.1321044558715172  0.2670508862592593
  0.6973886329181640  0.1321044558715172  0.3996157804074074
  0.6605222734714639  0.1735791102510598  0.2670508862592593
  0.6605222734714639  0.1735791102510598  0.3996157804074074
  0.6236559140236639  0.2150537646284028  0.2670508862592593
  0.6236559140236639  0.2150537646284028  0.3996157804074074
  0.5867895545777688  0.2565284190057457  0.2670508862592593
  0.5867895545777688  0.2565284190057457  0.3996157804074074
  0.5499231951299689  0.2980030733830887  0.2670508862592593
  0.5499231951299689  0.2980030733830887  0.3996157804074074
  0.5130568356832688  0.3394777277626312  0.2670508862592593
  0.5130568356832688  0.3394777277626312  0.3996157804074074
  0.4761904762354688  0.3809523821399741  0.2670508862592593
  0.4761904762354688  0.3809523821399741  0.3996157804074074
  0.4393241167895738  0.4224270365173172  0.2670508862592593
  0.4393241167895738  0.4224270365173172  0.3996157804074074
  0.4024577573417739  0.4639016908946601  0.2670508862592593
  0.4024577573417739  0.4639016908946601  0.3996157804074074
  0.3655913978950737  0.5053763452742026  0.2670508862592593
  0.3655913978950737  0.5053763452742026  0.3996157804074074
  0.3287250384472738  0.5468509996515456  0.2670508862592593
  0.3287250384472738  0.5468509996515456  0.3996157804074074
  0.2918586790013788  0.5883256540288885  0.2670508862592593
  0.2918586790013788  0.5883256540288885  0.3996157804074074
  0.2549923195535789  0.6298003084062315  0.2670508862592593
  0.2549923195535789  0.6298003084062315  0.3996157804074074
  0.2181259601068787  0.6712749627857740  0.2670508862592593
  0.2181259601068787  0.6712749627857740  0.3996157804074074
  0.1812596006590788  0.7127496171631170  0.2670508862592593
  0.1812596006590788  0.7127496171631170  0.3996157804074074
  0.1443932412131839  0.7542242715404600  0.2670508862592593
  0.1443932412131839  0.7542242715404600  0.3996157804074074
  0.1075268817664837  0.7956989259200026  0.2670508862592593
  0.1075268817664837  0.7956989259200026  0.3996157804074074
  0.0706605223186837  0.8371735802973453  0.2670508862592593
  0.0706605223186837  0.8371735802973453  0.3996157804074074
  0.0337941628708838  0.8786482346746884  0.2670508862592593
  0.0337941628708838  0.8786482346746884  0.3996157804074074
  0.8863287250845938  0.0445468521862599  0.2670508862592593
  0.8863287250845938  0.0445468521862599  0.3996157804074074
  0.8494623656367939  0.0860215065636028  0.2670508862592593
  0.8494623656367939  0.0860215065636028  0.3996157804074074
  0.8125960061908989  0.1274961609409458  0.2670508862592593
  0.8125960061908989  0.1274961609409458  0.3996157804074074
  0.7757296467441988  0.1689708153204883  0.2670508862592593
  0.7757296467441988  0.1689708153204883  0.3996157804074074
  0.7388632872963988  0.2104454696978313  0.2670508862592593
  0.7388632872963988  0.2104454696978313  0.3996157804074074
  0.7019969278485988  0.2519201240751742  0.2670508862592593
  0.7019969278485988  0.2519201240751742  0.3996157804074074
  0.6651305684027038  0.2933947784525172  0.2670508862592593
  0.6651305684027038  0.2933947784525172  0.3996157804074074
  0.6282642089560038  0.3348694328320598  0.2670508862592593
  0.6282642089560038  0.3348694328320598  0.3996157804074074
  0.5913978495082037  0.3763440872094027  0.2670508862592593
  0.5913978495082037  0.3763440872094027  0.3996157804074074
  0.5545314900604038  0.4178187415867456  0.2670508862592593
  0.5545314900604038  0.4178187415867456  0.3996157804074074
  0.5176651306145089  0.4592933959640886  0.2670508862592593
  0.5176651306145089  0.4592933959640886  0.3996157804074074
  0.4807987711678087  0.5007680503436311  0.2670508862592593
  0.4807987711678087  0.5007680503436311  0.3996157804074074
  0.4439324117200088  0.5422427047209741  0.2670508862592593
  0.4439324117200088  0.5422427047209741  0.3996157804074074
  0.4070660522722088  0.5837173590983170  0.2670508862592593
  0.4070660522722088  0.5837173590983170  0.3996157804074074
  0.3701996928263138  0.6251920134756600  0.2670508862592593
  0.3701996928263138  0.6251920134756600  0.3996157804074074
  0.3333333333796137  0.6666666678552026  0.2670508862592593
  0.3333333333796137  0.6666666678552026  0.3996157804074074
  0.2964669739318138  0.7081413222325456  0.2670508862592593
  0.2964669739318138  0.7081413222325456  0.3996157804074074
  0.2596006144840138  0.7496159766098884  0.2670508862592593
  0.2596006144840138  0.7496159766098884  0.3996157804074074
  0.2227342550381188  0.7910906309872314  0.2670508862592593
  0.2227342550381188  0.7910906309872314  0.3996157804074074
  0.1858678955914187  0.8325652853667740  0.2670508862592593
  0.1858678955914187  0.8325652853667740  0.3996157804074074
  0.1490015361436187  0.8740399397441169  0.2670508862592593
  0.1490015361436187  0.8740399397441169  0.3996157804074074
  0.1121351766958188  0.9155145941214599  0.2670508862592593
  0.1121351766958188  0.9155145941214599  0.3996157804074074
  0.0752688172499239  0.9569892484988028  0.2670508862592593
  0.0752688172499239  0.9569892484988028  0.3996157804074074
  0.0384024578032237  0.9984639028783454  0.2670508862592593
  0.0384024578032237  0.9984639028783454  0.3996157804074074
  0.9646697389095289  0.0814132116330313  0.2670508862592593
  0.9646697389095289  0.0814132116330313  0.3996157804074074
  0.9278033794617289  0.1228878660103743  0.2670508862592593
  0.9278033794617289  0.1228878660103743  0.3996157804074074
  0.8909370200158340  0.1643625203877172  0.2670508862592593
  0.8909370200158340  0.1643625203877172  0.3996157804074074
  0.8540706605691337  0.2058371747672598  0.2670508862592593
  0.8540706605691337  0.2058371747672598  0.3996157804074074
  0.8172043011213338  0.2473118291446027  0.2670508862592593
  0.8172043011213338  0.2473118291446027  0.3996157804074074
  0.7803379416735339  0.2887864835219457  0.2670508862592593
  0.7803379416735339  0.2887864835219457  0.3996157804074074
  0.7434715822276388  0.3302611378992886  0.2670508862592593
  0.7434715822276388  0.3302611378992886  0.3996157804074074
  0.7066052227809387  0.3717357922788312  0.2670508862592593
  0.7066052227809387  0.3717357922788312  0.3996157804074074
  0.6697388633331387  0.4132104466561741  0.2670508862592593
  0.6697388633331387  0.4132104466561741  0.3996157804074074
  0.6328725038853389  0.4546851010335171  0.2670508862592593
  0.6328725038853389  0.4546851010335171  0.3996157804074074
  0.5960061444394439  0.4961597554108600  0.2670508862592593
  0.5960061444394439  0.4961597554108600  0.3996157804074074
  0.5591397849927436  0.5376344097904026  0.2670508862592593
  0.5591397849927436  0.5376344097904026  0.3996157804074074
  0.5222734255449437  0.5791090641677455  0.2670508862592593
  0.5222734255449437  0.5791090641677455  0.3996157804074074
  0.4854070660971439  0.6205837185450885  0.2670508862592593
  0.4854070660971439  0.6205837185450885  0.3996157804074074
  0.4485407066512488  0.6620583729224314  0.2670508862592593
  0.4485407066512488  0.6620583729224314  0.3996157804074074
  0.4116743472045488  0.7035330273019741  0.2670508862592593
  0.4116743472045488  0.7035330273019741  0.3996157804074074
  0.3748079877567488  0.7450076816793171  0.2670508862592593
  0.3748079877567488  0.7450076816793171  0.3996157804074074
  0.3379416283089489  0.7864823360566600  0.2670508862592593
  0.3379416283089489  0.7864823360566600  0.3996157804074074
  0.3010752688630539  0.8279569904340029  0.2670508862592593
  0.3010752688630539  0.8279569904340029  0.3996157804074074
  0.2642089094163537  0.8694316448135455  0.2670508862592593
  0.2642089094163537  0.8694316448135455  0.3996157804074074
  0.2273425499685537  0.9109062991908883  0.2670508862592593
  0.2273425499685537  0.9109062991908883  0.3996157804074074
  0.1904761905207539  0.9523809535682314  0.2670508862592593
  0.1904761905207539  0.9523809535682314  0.3996157804074074
  0.1536098310759586  0.9938556079477738  0.2670508862592593
  0.1536098310759586  0.9938556079477738  0.3996157804074074
  0.1167434716281587  0.0353302623251169  0.2670508862592593
  0.1167434716281587  0.0353302623251169  0.3996157804074074
  0.9692780338418687  0.2012288798366883  0.2670508862592593
  0.9692780338418687  0.2012288798366883  0.3996157804074074
  0.9324116743940688  0.2427035342140313  0.2670508862592593
  0.9324116743940688  0.2427035342140313  0.3996157804074074
  0.8955453149462689  0.2841781885913742  0.2670508862592593
  0.8955453149462689  0.2841781885913742  0.3996157804074074
  0.8586789554984690  0.3256528429687172  0.2670508862592593
  0.8586789554984690  0.3256528429687172  0.3996157804074074
  0.8218125960536737  0.3671274973482597  0.2670508862592593
  0.8218125960536737  0.3671274973482597  0.3996157804074074
  0.7849462366058738  0.4086021517256027  0.2670508862592593
  0.7849462366058738  0.4086021517256027  0.3996157804074074
  0.7480798771580737  0.4500768061029456  0.2670508862592593
  0.7480798771580737  0.4500768061029456  0.3996157804074074
  0.7112135177102737  0.4915514604802886  0.2670508862592593
  0.7112135177102737  0.4915514604802886  0.3996157804074074
  0.6743471582654788  0.5330261148598311  0.2670508862592593
  0.6743471582654788  0.5330261148598311  0.3996157804074074
  0.6374807988176788  0.5745007692371741  0.2670508862592593
  0.6374807988176788  0.5745007692371741  0.3996157804074074
  0.6006144393698788  0.6159754236145170  0.2670508862592593
  0.6006144393698788  0.6159754236145170  0.3996157804074074
  0.5637480799220789  0.6574500779918599  0.2670508862592593
  0.5637480799220789  0.6574500779918599  0.3996157804074074
  0.5268817204772837  0.6989247323714025  0.2670508862592593
  0.5268817204772837  0.6989247323714025  0.3996157804074074
  0.4900153610294837  0.7403993867487455  0.2670508862592593
  0.4900153610294837  0.7403993867487455  0.3996157804074074
  0.4531490015816839  0.7818740411260885  0.2670508862592593
  0.4531490015816839  0.7818740411260885  0.3996157804074074
  0.4162826421338839  0.8233486955034314  0.2670508862592593
  0.4162826421338839  0.8233486955034314  0.3996157804074074
  0.3794162826890887  0.8648233498829739  0.2670508862592593
  0.3794162826890887  0.8648233498829739  0.3996157804074074
  0.3425499232412887  0.9062980042603169  0.2670508862592593
  0.3425499232412887  0.9062980042603169  0.3996157804074074
  0.3056835637934888  0.9477726586376599  0.2670508862592593
  0.3056835637934888  0.9477726586376599  0.3996157804074074
  0.2688172043456888  0.9892473130150028  0.2670508862592593
  0.2688172043456888  0.9892473130150028  0.3996157804074074
  0.2319508448997939  0.0307219673923458  0.2670508862592593
  0.2319508448997939  0.0307219673923458  0.3996157804074074
  0.9738863287712038  0.3210445480381456  0.2670508862592593
  0.9738863287712038  0.3210445480381456  0.3996157804074074
  0.9370199693234039  0.3625192024154886  0.2670508862592593
  0.9370199693234039  0.3625192024154886  0.3996157804074074
  0.9001536098767038  0.4039938567950312  0.2670508862592593
  0.9001536098767038  0.4039938567950312  0.3996157804074074
  0.8632872504308088  0.4454685111723741  0.2670508862592593
  0.8632872504308088  0.4454685111723741  0.3996157804074074
  0.8264208909830089  0.4869431655497171  0.2670508862592593
  0.8264208909830089  0.4869431655497171  0.3996157804074074
  0.7895545315352089  0.5284178199270601  0.2670508862592593
  0.7895545315352089  0.5284178199270601  0.3996157804074074
  0.7526881720885088  0.5698924743066026  0.2670508862592593
  0.7526881720885088  0.5698924743066026  0.3996157804074074
  0.7158218126426137  0.6113671286839455  0.2670508862592593
  0.7158218126426137  0.6113671286839455  0.3996157804074074
  0.6789554531948139  0.6528417830612885  0.2670508862592593
  0.6789554531948139  0.6528417830612885  0.3996157804074074
  0.6420890937470138  0.6943164374386314  0.2670508862592593
  0.6420890937470138  0.6943164374386314  0.3996157804074074
  0.6052227343003138  0.7357910918181741  0.2670508862592593
  0.6052227343003138  0.7357910918181741  0.3996157804074074
  0.5683563748544187  0.7772657461955169  0.2670508862592593
  0.5683563748544187  0.7772657461955169  0.3996157804074074
  0.5314900154066189  0.8187404005728600  0.2670508862592593
  0.5314900154066189  0.8187404005728600  0.3996157804074074
  0.4946236559588189  0.8602150549502029  0.2670508862592593
  0.4946236559588189  0.8602150549502029  0.3996157804074074
  0.4577572965121187  0.9016897093297453  0.2670508862592593
  0.4577572965121187  0.9016897093297453  0.3996157804074074
  0.4208909370662238  0.9431643637070883  0.2670508862592593
  0.4208909370662238  0.9431643637070883  0.3996157804074074
  0.3840245776184239  0.9846390180844314  0.2670508862592593
  0.3840245776184239  0.9846390180844314  0.3996157804074074
  0.3471582181725288  0.0261136724617743  0.2670508862592593
  0.3471582181725288  0.0261136724617743  0.3996157804074074
  0.9784946237016389  0.4408602162418027  0.2670508862592593
  0.9784946237016389  0.4408602162418027  0.3996157804074074
  0.9416282642557438  0.4823348706191456  0.2670508862592593
  0.9416282642557438  0.4823348706191456  0.3996157804074074
  0.9047619048079438  0.5238095249964886  0.2670508862592593
  0.9047619048079438  0.5238095249964886  0.3996157804074074
  0.8678955453612437  0.5652841793760311  0.2670508862592593
  0.8678955453612437  0.5652841793760311  0.3996157804074074
  0.8310291859134438  0.6067588337533740  0.2670508862592593
  0.8310291859134438  0.6067588337533740  0.3996157804074074
  0.7941628264675489  0.6482334881307170  0.2670508862592593
  0.7941628264675489  0.6482334881307170  0.3996157804074074
  0.7572964670197487  0.6897081425080599  0.2670508862592593
  0.7572964670197487  0.6897081425080599  0.3996157804074074
  0.7204301075730487  0.7311827968876026  0.2670508862592593
  0.7204301075730487  0.7311827968876026  0.3996157804074074
  0.6835637481252488  0.7726574512649456  0.2670508862592593
  0.6835637481252488  0.7726574512649456  0.3996157804074074
  0.6466973886793539  0.8141321056422884  0.2670508862592593
  0.6466973886793539  0.8141321056422884  0.3996157804074074
  0.6098310292315537  0.8556067600196314  0.2670508862592593
  0.6098310292315537  0.8556067600196314  0.3996157804074074
  0.5729646697848537  0.8970814143991740  0.2670508862592593
  0.5729646697848537  0.8970814143991740  0.3996157804074074
  0.5360983103370538  0.9385560687765169  0.2670508862592593
  0.5360983103370538  0.9385560687765169  0.3996157804074074
  0.4992319508911587  0.9800307231538599  0.2670508862592593
  0.4992319508911587  0.9800307231538599  0.3996157804074074
  0.4623655914433588  0.0215053775312028  0.2670508862592593
  0.4623655914433588  0.0215053775312028  0.3996157804074074
  0.9831029186328789  0.5606758844432601  0.2670508862592593
  0.9831029186328789  0.5606758844432601  0.3996157804074074
  0.9462365591861787  0.6021505388228026  0.2670508862592593
  0.9462365591861787  0.6021505388228026  0.3996157804074074
  0.9093701997383787  0.6436251932001456  0.2670508862592593
  0.9093701997383787  0.6436251932001456  0.3996157804074074
  0.8725038402924838  0.6850998475774884  0.2670508862592593
  0.8725038402924838  0.6850998475774884  0.3996157804074074
  0.8356374808446839  0.7265745019548315  0.2670508862592593
  0.8356374808446839  0.7265745019548315  0.3996157804074074
  0.7987711213979838  0.7680491563343740  0.2670508862592593
  0.7987711213979838  0.7680491563343740  0.3996157804074074
  0.7619047619501839  0.8095238107117171  0.2670508862592593
  0.7619047619501839  0.8095238107117171  0.3996157804074074
  0.7250384025042887  0.8509984650890599  0.2670508862592593
  0.7250384025042887  0.8509984650890599  0.3996157804074074
  0.6881720430564889  0.8924731194664030  0.2670508862592593
  0.6881720430564889  0.8924731194664030  0.3996157804074074
  0.6513056836097888  0.9339477738459454  0.2670508862592593
  0.6513056836097888  0.9339477738459454  0.3996157804074074
  0.6144393241619888  0.9754224282232883  0.2670508862592593
  0.6144393241619888  0.9754224282232883  0.3996157804074074
  0.5775729647160939  0.0168970826006314  0.2670508862592593
  0.5775729647160939  0.0168970826006314  0.3996157804074074
  0.9877112135633138  0.6804915526469170  0.2670508862592593
  0.9877112135633138  0.6804915526469170  0.3996157804074074
  0.9508448541155139  0.7219662070242600  0.2670508862592593
  0.9508448541155139  0.7219662070242600  0.3996157804074074
  0.9139784946707187  0.7634408614038025  0.2670508862592593
  0.9139784946707187  0.7634408614038025  0.3996157804074074
  0.8771121352229188  0.8049155157811455  0.2670508862592593
  0.8771121352229188  0.8049155157811455  0.3996157804074074
  0.8402457757751188  0.8463901701584885  0.2670508862592593
  0.8402457757751188  0.8463901701584885  0.3996157804074074
  0.8033794163273189  0.8878648245358314  0.2670508862592593
  0.8033794163273189  0.8878648245358314  0.3996157804074074
  0.7665130568825237  0.9293394789153739  0.2670508862592593
  0.7665130568825237  0.9293394789153739  0.3996157804074074
  0.7296466974347238  0.9708141332927169  0.2670508862592593
  0.7296466974347238  0.9708141332927169  0.3996157804074074
  0.6927803379888289  0.0122887876700599  0.2670508862592593
  0.6927803379888289  0.0122887876700599  0.3996157804074074
  0.9923195084956536  0.8003072208505739  0.2670508862592593
  0.9923195084956536  0.8003072208505739  0.3996157804074074
  0.9554531490478537  0.8417818752279169  0.2670508862592593
  0.9554531490478537  0.8417818752279169  0.3996157804074074
  0.9185867896000538  0.8832565296052599  0.2670508862592593
  0.9185867896000538  0.8832565296052599  0.3996157804074074
  0.8817204301522539  0.9247311839826028  0.2670508862592593
  0.8817204301522539  0.9247311839826028  0.3996157804074074
  0.8448540707074587  0.9662058383621454  0.2670508862592593
  0.8448540707074587  0.9662058383621454  0.3996157804074074
  0.8079877112596587  0.0076804927394884  0.2670508862592593
  0.8079877112596587  0.0076804927394884  0.3996157804074074
  0.9969278034249890  0.9201228890520314  0.2670508862592593
  0.9969278034249890  0.9201228890520314  0.3996157804074074
  0.9600614439782887  0.9615975434315740  0.2670508862592593
  0.9600614439782887  0.9615975434315740  0.3996157804074074
  0.9231950845323937  0.0030721978089169  0.2670508862592593
  0.9231950845323937  0.0030721978089169  0.3996157804074074
  0.9984639016448944  0.0384024589000388  0.6003842195925926
  0.9984639016448944  0.0384024589000388  0.7329491137407407
  0.1182795698464099  0.0430107538306102  0.6003842195925926
  0.1182795698464099  0.0430107538306102  0.7329491137407407
  0.0768049154691593  0.0798771132773817  0.6003842195925926
  0.0768049154691593  0.0798771132773817  0.7329491137407407
  0.0353302610919087  0.1167434727241532  0.6003842195925926
  0.0353302610919087  0.1167434727241532  0.7329491137407407
  0.2380952380498305  0.0476190487611817  0.6003842195925926
  0.2380952380498305  0.0476190487611817  0.7329491137407407
  0.1966205836725799  0.0844854082079532  0.6003842195925926
  0.1966205836725799  0.0844854082079532  0.7329491137407407
  0.1551459292934243  0.1213517676547247  0.6003842195925926
  0.1551459292934243  0.1213517676547247  0.7329491137407407
  0.1136712749161738  0.1582181271014961  0.6003842195925926
  0.1136712749161738  0.1582181271014961  0.7329491137407407
  0.0721966205370182  0.1950844865482676  0.6003842195925926
  0.0721966205370182  0.1950844865482676  0.7329491137407407
  0.0307219661597677  0.2319508459950390  0.6003842195925926
  0.0307219661597677  0.2319508459950390  0.7329491137407407
  0.3579109062532510  0.0522273436917532  0.6003842195925926
  0.3579109062532510  0.0522273436917532  0.7329491137407407
  0.3164362518740955  0.0890937031385247  0.6003842195925926
  0.3164362518740955  0.0890937031385247  0.7329491137407407
  0.2749615974968449  0.1259600625852961  0.6003842195925926
  0.2749615974968449  0.1259600625852961  0.7329491137407407
  0.2334869431176894  0.1628264220320676  0.6003842195925926
  0.2334869431176894  0.1628264220320676  0.7329491137407407
  0.1920122887404388  0.1996927814788391  0.6003842195925926
  0.1920122887404388  0.1996927814788391  0.7329491137407407
  0.1505376343642880  0.2365591409278102  0.6003842195925926
  0.1505376343642880  0.2365591409278102  0.7329491137407407
  0.1090629799851325  0.2734255003745816  0.6003842195925926
  0.1090629799851325  0.2734255003745816  0.7329491137407407
  0.0675883256078819  0.3102918598213531  0.6003842195925926
  0.0675883256078819  0.3102918598213531  0.7329491137407407
  0.0261136712287264  0.3471582192681246  0.6003842195925926
  0.0261136712287264  0.3471582192681246  0.7329491137407407
  0.4777265744547666  0.0568356386223247  0.6003842195925926
  0.4777265744547666  0.0568356386223247  0.7329491137407407
  0.4362519200775161  0.0937019980690962  0.6003842195925926
  0.4362519200775161  0.0937019980690962  0.7329491137407407
  0.3947772656983605  0.1305683575158676  0.6003842195925926
  0.3947772656983605  0.1305683575158676  0.7329491137407407
  0.3533026113211100  0.1674347169626391  0.6003842195925926
  0.3533026113211100  0.1674347169626391  0.7329491137407407
  0.3118279569449592  0.2043010764116102  0.6003842195925926
  0.3118279569449592  0.2043010764116102  0.7329491137407407
  0.2703533025658036  0.2411674358583817  0.6003842195925926
  0.2703533025658036  0.2411674358583817  0.7329491137407407
  0.2288786481885531  0.2780337953051531  0.6003842195925926
  0.2288786481885531  0.2780337953051531  0.7329491137407407
  0.1874039938093975  0.3149001547519246  0.6003842195925926
  0.1874039938093975  0.3149001547519246  0.7329491137407407
  0.1459293394321470  0.3517665141986960  0.6003842195925926
  0.1459293394321470  0.3517665141986960  0.7329491137407407
  0.1044546850548964  0.3886328736454675  0.6003842195925926
  0.1044546850548964  0.3886328736454675  0.7329491137407407
  0.0629800306757409  0.4254992330922390  0.6003842195925926
  0.0629800306757409  0.4254992330922390  0.7329491137407407
  0.0215053762984903  0.4623655925390104  0.6003842195925926
  0.0215053762984903  0.4623655925390104  0.7329491137407407
  0.5975422426581872  0.0614439335528962  0.6003842195925926
  0.5975422426581872  0.0614439335528962  0.7329491137407407
  0.5560675882790317  0.0983102929996676  0.6003842195925926
  0.5560675882790317  0.0983102929996676  0.7329491137407407
  0.5145929339017811  0.1351766524464391  0.6003842195925926
  0.5145929339017811  0.1351766524464391  0.7329491137407407
  0.4731182795256303  0.1720430118954102  0.6003842195925926
  0.4731182795256303  0.1720430118954102  0.7329491137407407
  0.4316436251464748  0.2089093713421817  0.6003842195925926
  0.4316436251464748  0.2089093713421817  0.7329491137407407
  0.3901689707692242  0.2457757307889531  0.6003842195925926
  0.3901689707692242  0.2457757307889531  0.7329491137407407
  0.3486943163900687  0.2826420902357246  0.6003842195925926
  0.3486943163900687  0.2826420902357246  0.7329491137407407
  0.3072196620128181  0.3195084496824961  0.6003842195925926
  0.3072196620128181  0.3195084496824961  0.7329491137407407
  0.2657450076355675  0.3563748091292675  0.6003842195925926
  0.2657450076355675  0.3563748091292675  0.7329491137407407
  0.2242703532564120  0.3932411685760390  0.6003842195925926
  0.2242703532564120  0.3932411685760390  0.7329491137407407
  0.1827956988791614  0.4301075280228104  0.6003842195925926
  0.1827956988791614  0.4301075280228104  0.7329491137407407
  0.1413210445000059  0.4669738874695819  0.6003842195925926
  0.1413210445000059  0.4669738874695819  0.7329491137407407
  0.0998463901238552  0.5038402469185531  0.6003842195925926
  0.0998463901238552  0.5038402469185531  0.7329491137407407
  0.0583717357446996  0.5407066063653245  0.6003842195925926
  0.0583717357446996  0.5407066063653245  0.7329491137407407
  0.0168970813674490  0.5775729658120959  0.6003842195925926
  0.0168970813674490  0.5775729658120959  0.7329491137407407
  0.7173579108616078  0.0660522284834676  0.6003842195925926
  0.7173579108616078  0.0660522284834676  0.7329491137407407
  0.6758832564824523  0.1029185879302391  0.6003842195925926
  0.6758832564824523  0.1029185879302391  0.7329491137407407
  0.6344086021063015  0.1397849473792102  0.6003842195925926
  0.6344086021063015  0.1397849473792102  0.7329491137407407
  0.5929339477271459  0.1766513068259817  0.6003842195925926
  0.5929339477271459  0.1766513068259817  0.7329491137407407
  0.5514592933498954  0.2135176662727531  0.6003842195925926
  0.5514592933498954  0.2135176662727531  0.7329491137407407
  0.5099846389707399  0.2503840257195246  0.6003842195925926
  0.5099846389707399  0.2503840257195246  0.7329491137407407
  0.4685099845934892  0.2872503851662961  0.6003842195925926
  0.4685099845934892  0.2872503851662961  0.7329491137407407
  0.4270353302162387  0.3241167446130676  0.6003842195925926
  0.4270353302162387  0.3241167446130676  0.7329491137407407
  0.3855606758370831  0.3609831040598390  0.6003842195925926
  0.3855606758370831  0.3609831040598390  0.7329491137407407
  0.3440860214598326  0.3978494635066105  0.6003842195925926
  0.3440860214598326  0.3978494635066105  0.7329491137407407
  0.3026113670817769  0.4347158229555816  0.6003842195925926
  0.3026113670817769  0.4347158229555816  0.7329491137407407
  0.2611367127045263  0.4715821824023531  0.6003842195925926
  0.2611367127045263  0.4715821824023531  0.7329491137407407
  0.2196620583272758  0.5084485418491246  0.6003842195925926
  0.2196620583272758  0.5084485418491246  0.7329491137407407
  0.1781874039481202  0.5453149012958960  0.6003842195925926
  0.1781874039481202  0.5453149012958960  0.7329491137407407
  0.1367127495708696  0.5821812607426675  0.6003842195925926
  0.1367127495708696  0.5821812607426675  0.7329491137407407
  0.0952380951917141  0.6190476201894389  0.6003842195925926
  0.0952380951917141  0.6190476201894389  0.7329491137407407
  0.0537634408144635  0.6559139796362103  0.6003842195925926
  0.0537634408144635  0.6559139796362103  0.7329491137407407
  0.0122887864353080  0.6927803390829819  0.6003842195925926
  0.0122887864353080  0.6927803390829819  0.7329491137407407
  0.8371735790631233  0.0706605234140391  0.6003842195925926
  0.8371735790631233  0.0706605234140391  0.7329491137407407
  0.7956989246869726  0.1075268828630102  0.6003842195925926
  0.7956989246869726  0.1075268828630102  0.7329491137407407
  0.7542242703078170  0.1443932423097817  0.6003842195925926
  0.7542242703078170  0.1443932423097817  0.7329491137407407
  0.7127496159305665  0.1812596017565531  0.6003842195925926
  0.7127496159305665  0.1812596017565531  0.7329491137407407
  0.6712749615514110  0.2181259612033246  0.6003842195925926
  0.6712749615514110  0.2181259612033246  0.7329491137407407
  0.6298003071741602  0.2549923206500961  0.6003842195925926
  0.6298003071741602  0.2549923206500961  0.7329491137407407
  0.5883256527969098  0.2918586800968676  0.6003842195925926
  0.5883256527969098  0.2918586800968676  0.7329491137407407
  0.5468509984177543  0.3287250395436390  0.6003842195925926
  0.5468509984177543  0.3287250395436390  0.7329491137407407
  0.5053763440405037  0.3655913989904105  0.6003842195925926
  0.5053763440405037  0.3655913989904105  0.7329491137407407
  0.4639016896624480  0.4024577584393816  0.6003842195925926
  0.4639016896624480  0.4024577584393816  0.7329491137407407
  0.4224270352851974  0.4393241178861531  0.6003842195925926
  0.4224270352851974  0.4393241178861531  0.7329491137407407
  0.3809523809079469  0.4761904773329245  0.6003842195925926
  0.3809523809079469  0.4761904773329245  0.7329491137407407
  0.3394777265287914  0.5130568367796960  0.6003842195925926
  0.3394777265287914  0.5130568367796960  0.7329491137407407
  0.2980030721515408  0.5499231962264675  0.6003842195925926
  0.2980030721515408  0.5499231962264675  0.7329491137407407
  0.2565284177723852  0.5867895556732390  0.6003842195925926
  0.2565284177723852  0.5867895556732390  0.7329491137407407
  0.2150537633951346  0.6236559151200104  0.6003842195925926
  0.2150537633951346  0.6236559151200104  0.7329491137407407
  0.1735791090159791  0.6605222745667818  0.6003842195925926
  0.1735791090159791  0.6605222745667818  0.7329491137407407
  0.1321044546387285  0.6973886340135533  0.6003842195925926
  0.1321044546387285  0.6973886340135533  0.7329491137407407
  0.0906298002625778  0.7342549934625244  0.6003842195925926
  0.0906298002625778  0.7342549934625244  0.7329491137407407
  0.0491551458834222  0.7711213529092958  0.6003842195925926
  0.0491551458834222  0.7711213529092958  0.7329491137407407
  0.0076804915061716  0.8079877123560674  0.6003842195925926
  0.0076804915061716  0.8079877123560674  0.7329491137407407
  0.9569892472676439  0.0752688183468102  0.6003842195925926
  0.9569892472676439  0.0752688183468102  0.7329491137407407
  0.9155145928884884  0.1121351777935817  0.6003842195925926
  0.9155145928884884  0.1121351777935817  0.7329491137407407
  0.8740399385112375  0.1490015372403532  0.6003842195925926
  0.8740399385112375  0.1490015372403532  0.7329491137407407
  0.8325652841339870  0.1858678966871246  0.6003842195925926
  0.8325652841339870  0.1858678966871246  0.7329491137407407
  0.7910906297548315  0.2227342561338961  0.6003842195925926
  0.7910906297548315  0.2227342561338961  0.7329491137407407
  0.7496159753775810  0.2596006155806675  0.6003842195925926
  0.7496159753775810  0.2596006155806675  0.7329491137407407
  0.7081413209984254  0.2964669750274390  0.6003842195925926
  0.7081413209984254  0.2964669750274390  0.7329491137407407
  0.6666666666211749  0.3333333344742105  0.6003842195925926
  0.6666666666211749  0.3333333344742105  0.7329491137407407
  0.6251920122431192  0.3701996939231816  0.6003842195925926
  0.6251920122431192  0.3701996939231816  0.7329491137407407
  0.5837173578658685  0.4070660533699531  0.6003842195925926
  0.5837173578658685  0.4070660533699531  0.7329491137407407
  0.5422427034886180  0.4439324128167246  0.6003842195925926
  0.5422427034886180  0.4439324128167246  0.7329491137407407
  0.5007680491094625  0.4807987722634960  0.6003842195925926
  0.5007680491094625  0.4807987722634960  0.7329491137407407
  0.4592933947322119  0.5176651317102675  0.6003842195925926
  0.4592933947322119  0.5176651317102675  0.7329491137407407
  0.4178187403530564  0.5545314911570389  0.6003842195925926
  0.4178187403530564  0.5545314911570389  0.7329491137407407
  0.3763440859758058  0.5913978506038104  0.6003842195925926
  0.3763440859758058  0.5913978506038104  0.7329491137407407
  0.3348694315966502  0.6282642100505819  0.6003842195925926
  0.3348694315966502  0.6282642100505819  0.7329491137407407
  0.2933947772193997  0.6651305694973534  0.6003842195925926
  0.2933947772193997  0.6651305694973534  0.7329491137407407
  0.2519201228432489  0.7019969289463244  0.6003842195925926
  0.2519201228432489  0.7019969289463244  0.7329491137407407
  0.2104454684640934  0.7388632883930959  0.6003842195925926
  0.2104454684640934  0.7388632883930959  0.7329491137407407
  0.1689708140868428  0.7757296478398674  0.6003842195925926
  0.1689708140868428  0.7757296478398674  0.7329491137407407
  0.1274961597076872  0.8125960072866388  0.6003842195925926
  0.1274961597076872  0.8125960072866388  0.7329491137407407
  0.0860215053304367  0.8494623667334104  0.6003842195925926
  0.0860215053304367  0.8494623667334104  0.7329491137407407
  0.0445468509531861  0.8863287261801818  0.6003842195925926
  0.0445468509531861  0.8863287261801818  0.7329491137407407
  0.0030721965740306  0.9231950856269533  0.6003842195925926
  0.0030721965740306  0.9231950856269533  0.7329491137407407
  0.9938556067146583  0.1536098321709247  0.6003842195925926
  0.9938556067146583  0.1536098321709247  0.7329491137407407
  0.9523809523355027  0.1904761916176961  0.6003842195925926
  0.9523809523355027  0.1904761916176961  0.7329491137407407
  0.9109062979582520  0.2273425510644676  0.6003842195925926
  0.9109062979582520  0.2273425510644676  0.7329491137407407
  0.8694316435790966  0.2642089105112390  0.6003842195925926
  0.8694316435790966  0.2642089105112390  0.7329491137407407
  0.8279569892018459  0.3010752699580105  0.6003842195925926
  0.8279569892018459  0.3010752699580105  0.7329491137407407
  0.7864823348237902  0.3379416294069816  0.6003842195925926
  0.7864823348237902  0.3379416294069816  0.7329491137407407
  0.7450076804465396  0.3748079888537531  0.6003842195925926
  0.7450076804465396  0.3748079888537531  0.7329491137407407
  0.7035330260692891  0.4116743483005246  0.6003842195925926
  0.7035330260692891  0.4116743483005246  0.7329491137407407
  0.6620583716901336  0.4485407077472960  0.6003842195925926
  0.6620583716901336  0.4485407077472960  0.7329491137407407
  0.6205837173128831  0.4854070671940675  0.6003842195925926
  0.6205837173128831  0.4854070671940675  0.7329491137407407
  0.5791090629337275  0.5222734266408390  0.6003842195925926
  0.5791090629337275  0.5222734266408390  0.7329491137407407
  0.5376344085564769  0.5591397860876104  0.6003842195925926
  0.5376344085564769  0.5591397860876104  0.7329491137407407
  0.4961597541792263  0.5960061455343819  0.6003842195925926
  0.4961597541792263  0.5960061455343819  0.7329491137407407
  0.4546850998000708  0.6328725049811533  0.6003842195925926
  0.4546850998000708  0.6328725049811533  0.7329491137407407
  0.4132104454239200  0.6697388644301244  0.6003842195925926
  0.4132104454239200  0.6697388644301244  0.7329491137407407
  0.3717357910447645  0.7066052238768958  0.6003842195925926
  0.3717357910447645  0.7066052238768958  0.7329491137407407
  0.3302611366675139  0.7434715833236674  0.6003842195925926
  0.3302611366675139  0.7434715833236674  0.7329491137407407
  0.2887864822883583  0.7803379427704388  0.6003842195925926
  0.2887864822883583  0.7803379427704388  0.7329491137407407
  0.2473118279111078  0.8172043022172103  0.6003842195925926
  0.2473118279111078  0.8172043022172103  0.7329491137407407
  0.2058371735338572  0.8540706616639817  0.6003842195925926
  0.2058371735338572  0.8540706616639817  0.7329491137407407
  0.1643625191547017  0.8909370211107532  0.6003842195925926
  0.1643625191547017  0.8909370211107532  0.7329491137407407
  0.1228878647774511  0.9278033805575246  0.6003842195925926
  0.1228878647774511  0.9278033805575246  0.7329491137407407
  0.0814132103993954  0.9646697400064957  0.6003842195925926
  0.0814132103993954  0.9646697400064957  0.7329491137407407
  0.0399385560210450  0.0015360994510677  0.6003842195925926
  0.0399385560210450  0.0015360994510677  0.7329491137407407
  0.9892473117825171  0.2688172054418105  0.6003842195925926
  0.9892473117825171  0.2688172054418105  0.7329491137407407
  0.9477726574044615  0.3056835648907816  0.6003842195925926
  0.9477726574044615  0.3056835648907816  0.7329491137407407
  0.9062980030272109  0.3425499243375531  0.6003842195925926
  0.9062980030272109  0.3425499243375531  0.7329491137407407
  0.8648233486499601  0.3794162837843246  0.6003842195925926
  0.8648233486499601  0.3794162837843246  0.7329491137407407
  0.8233486942708047  0.4162826432310960  0.6003842195925926
  0.8233486942708047  0.4162826432310960  0.7329491137407407
  0.7818740398935542  0.4531490026778675  0.6003842195925926
  0.7818740398935542  0.4531490026778675  0.7329491137407407
  0.7403993855143988  0.4900153621246390  0.6003842195925926
  0.7403993855143988  0.4900153621246390  0.7329491137407407
  0.6989247311371480  0.5268817215714104  0.6003842195925926
  0.6989247311371480  0.5268817215714104  0.7329491137407407
  0.6574500767598975  0.5637480810181819  0.6003842195925926
  0.6574500767598975  0.5637480810181819  0.7329491137407407
  0.6159754223818418  0.6006144404671530  0.6003842195925926
  0.6159754223818418  0.6006144404671530  0.7329491137407407
  0.5745007680045912  0.6374807999139244  0.6003842195925926
  0.5745007680045912  0.6374807999139244  0.7329491137407407
  0.5330261136254357  0.6743471593606960  0.6003842195925926
  0.5330261136254357  0.6743471593606960  0.7329491137407407
  0.4915514592481851  0.7112135188074674  0.6003842195925926
  0.4915514592481851  0.7112135188074674  0.7329491137407407
  0.4500768048690296  0.7480798782542389  0.6003842195925926
  0.4500768048690296  0.7480798782542389  0.7329491137407407
  0.4086021504917790  0.7849462377010104  0.6003842195925926
  0.4086021504917790  0.7849462377010104  0.7329491137407407
  0.3671274961145284  0.8218125971477818  0.6003842195925926
  0.3671274961145284  0.8218125971477818  0.7329491137407407
  0.3256528417353728  0.8586789565945533  0.6003842195925926
  0.3256528417353728  0.8586789565945533  0.7329491137407407
  0.2841781873581223  0.8955453160413247  0.6003842195925926
  0.2841781873581223  0.8955453160413247  0.7329491137407407
  0.2427035329800666  0.9324116754902959  0.6003842195925926
  0.2427035329800666  0.9324116754902959  0.7329491137407407
  0.2012288786028160  0.9692780349370673  0.6003842195925926
  0.2012288786028160  0.9692780349370673  0.7329491137407407
  0.1597542242255654  0.0061443943838388  0.6003842195925926
  0.1597542242255654  0.0061443943838388  0.7329491137407407
  0.9846390168514758  0.3840245787148960  0.6003842195925926
  0.9846390168514758  0.3840245787148960  0.7329491137407407
  0.9431643624742253  0.4208909381616675  0.6003842195925926
  0.9431643624742253  0.4208909381616675  0.7329491137407407
  0.9016897080950698  0.4577572976084390  0.6003842195925926
  0.9016897080950698  0.4577572976084390  0.7329491137407407
  0.8602150537178193  0.4946236570552104  0.6003842195925926
  0.8602150537178193  0.4946236570552104  0.7329491137407407
  0.8187403993405685  0.5314900165019819  0.6003842195925926
  0.8187403993405685  0.5314900165019819  0.7329491137407407
  0.7772657449625130  0.5683563759509530  0.6003842195925926
  0.7772657449625130  0.5683563759509530  0.7329491137407407
  0.7357910905852623  0.6052227353977245  0.6003842195925926
  0.7357910905852623  0.6052227353977245  0.7329491137407407
  0.6943164362061067  0.6420890948444959  0.6003842195925926
  0.6943164362061067  0.6420890948444959  0.7329491137407407
  0.6528417818288562  0.6789554542912675  0.6003842195925926
  0.6528417818288562  0.6789554542912675  0.7329491137407407
  0.6113671274516056  0.7158218137380388  0.6003842195925926
  0.6113671274516056  0.7158218137380388  0.7329491137407407
  0.5698924730724501  0.7526881731848103  0.6003842195925926
  0.5698924730724501  0.7526881731848103  0.7329491137407407
  0.5284178186951995  0.7895545326315817  0.6003842195925926
  0.5284178186951995  0.7895545326315817  0.7329491137407407
  0.4869431643160440  0.8264208920783532  0.6003842195925926
  0.4869431643160440  0.8264208920783532  0.7329491137407407
  0.4454685099387934  0.8632872515251246  0.6003842195925926
  0.4454685099387934  0.8632872515251246  0.7329491137407407
  0.4039938555607377  0.9001536109740959  0.6003842195925926
  0.4039938555607377  0.9001536109740959  0.7329491137407407
  0.3625192011834871  0.9370199704208673  0.6003842195925926
  0.3625192011834871  0.9370199704208673  0.7329491137407407
  0.3210445468062366  0.9738863298676388  0.6003842195925926
  0.3210445468062366  0.9738863298676388  0.7329491137407407
  0.2795698924270810  0.0107526893144103  0.6003842195925926
  0.2795698924270810  0.0107526893144103  0.7329491137407407
  0.9800307219212397  0.4992319519857819  0.6003842195925926
  0.9800307219212397  0.4992319519857819  0.7329491137407407
  0.9385560675431841  0.5360983114347531  0.6003842195925926
  0.9385560675431841  0.5360983114347531  0.7329491137407407
  0.8970814131659335  0.5729646708815245  0.6003842195925926
  0.8970814131659335  0.5729646708815245  0.7329491137407407
  0.8556067587867779  0.6098310303282960  0.6003842195925926
  0.8556067587867779  0.6098310303282960  0.7329491137407407
  0.8141321044095274  0.6466973897750674  0.6003842195925926
  0.8141321044095274  0.6466973897750674  0.7329491137407407
  0.7726574500322769  0.6835637492218389  0.6003842195925926
  0.7726574500322769  0.6835637492218389  0.7329491137407407
  0.7311827956531213  0.7204301086686103  0.6003842195925926
  0.7311827956531213  0.7204301086686103  0.7329491137407407
  0.6897081412758707  0.7572964681153819  0.6003842195925926
  0.6897081412758707  0.7572964681153819  0.7329491137407407
  0.6482334868967152  0.7941628275621533  0.6003842195925926
  0.6482334868967152  0.7941628275621533  0.7329491137407407
  0.6067588325194646  0.8310291870089248  0.6003842195925926
  0.6067588325194646  0.8310291870089248  0.7329491137407407
  0.5652841781414089  0.8678955464578959  0.6003842195925926
  0.5652841781414089  0.8678955464578959  0.7329491137407407
  0.5238095237641582  0.9047619059046673  0.6003842195925926
  0.5238095237641582  0.9047619059046673  0.7329491137407407
  0.4823348693869077  0.9416282653514388  0.6003842195925926
  0.4823348693869077  0.9416282653514388  0.7329491137407407
  0.4408602150077521  0.9784946247982103  0.6003842195925926
  0.4408602150077521  0.9784946247982103  0.7329491137407407
  0.3993855606305016  0.0153609842449817  0.6003842195925926
  0.3993855606305016  0.0153609842449817  0.7329491137407407
  0.9754224269901984  0.6144393252588675  0.6003842195925926
  0.9754224269901984  0.6144393252588675  0.7329491137407407
  0.9339477726129479  0.6513056847056389  0.6003842195925926
  0.9339477726129479  0.6513056847056389  0.7329491137407407
  0.8924731182337924  0.6881720441524104  0.6003842195925926
  0.8924731182337924  0.6881720441524104  0.7329491137407407
  0.8509984638565418  0.7250384035991818  0.6003842195925926
  0.8509984638565418  0.7250384035991818  0.7329491137407407
  0.8095238094773862  0.7619047630459532  0.6003842195925926
  0.8095238094773862  0.7619047630459532  0.7329491137407407
  0.7680491551012354  0.7987711224949243  0.6003842195925926
  0.7680491551012354  0.7987711224949243  0.7329491137407407
  0.7265745007220800  0.8356374819416958  0.6003842195925926
  0.7265745007220800  0.8356374819416958  0.7329491137407407
  0.6850998463448293  0.8725038413884673  0.6003842195925926
  0.6850998463448293  0.8725038413884673  0.7329491137407407
  0.6436251919675788  0.9093702008352388  0.6003842195925926
  0.6436251919675788  0.9093702008352388  0.7329491137407407
  0.6021505375884233  0.9462365602820102  0.6003842195925926
  0.6021505375884233  0.9462365602820102  0.7329491137407407
  0.5606758832111728  0.9831029197287817  0.6003842195925926
  0.5606758832111728  0.9831029197287817  0.7329491137407407
  0.5192012288339222  0.0199692791755532  0.6003842195925926
  0.5192012288339222  0.0199692791755532  0.7329491137407407
  0.9708141320580574  0.7296466985297533  0.6003842195925926
  0.9708141320580574  0.7296466985297533  0.7329491137407407
  0.9293394776819067  0.7665130579787245  0.6003842195925926
  0.9293394776819067  0.7665130579787245  0.7329491137407407
  0.8878648233046561  0.8033794174254959  0.6003842195925926
  0.8878648233046561  0.8033794174254959  0.7329491137407407
  0.8463901689255006  0.8402457768722674  0.6003842195925926
  0.8463901689255006  0.8402457768722674  0.7329491137407407
  0.8049155145482501  0.8771121363190388  0.6003842195925926
  0.8049155145482501  0.8771121363190388  0.7329491137407407
  0.7634408601690945  0.9139784957658104  0.6003842195925926
  0.7634408601690945  0.9139784957658104  0.7329491137407407
  0.7219662057918439  0.9508448552125818  0.6003842195925926
  0.7219662057918439  0.9508448552125818  0.7329491137407407
  0.6804915514126884  0.9877112146593533  0.6003842195925926
  0.6804915514126884  0.9877112146593533  0.7329491137407407
  0.6390168970354378  0.0245775741061247  0.6003842195925926
  0.6390168970354378  0.0245775741061247  0.7329491137407407
  0.9662058371289211  0.8448540718028388  0.6003842195925926
  0.9662058371289211  0.8448540718028388  0.7329491137407407
  0.9247311827497656  0.8817204312496102  0.6003842195925926
  0.9247311827497656  0.8817204312496102  0.7329491137407407
  0.8832565283725150  0.9185867906963817  0.6003842195925926
  0.8832565283725150  0.9185867906963817  0.7329491137407407
  0.8417818739933594  0.9554531501431531  0.6003842195925926
  0.8417818739933594  0.9554531501431531  0.7329491137407407
  0.8003072196161088  0.9923195095899247  0.6003842195925926
  0.8003072196161088  0.9923195095899247  0.7329491137407407
  0.7588325652388583  0.0291858690366962  0.6003842195925926
  0.7588325652388583  0.0291858690366962  0.7329491137407407
  0.9615975421967801  0.9600614450737247  0.6003842195925926
  0.9615975421967801  0.9600614450737247  0.7329491137407407
  0.9201228878206293  0.9969278045226959  0.6003842195925926
  0.9201228878206293  0.9969278045226959  0.7329491137407407
  0.8786482334422788  0.0337941639672677  0.6003842195925926
  0.8786482334422788  0.0337941639672677  0.7329491137407407
