1302
Lattice="54.0532327003 0.0 0.0 -27.0266163518 46.8114726752 0.0 0.0 0.0 22.9186134249" Properties=species:S:1:pos:R:3 pbc="T T T"
Zr       0.00000306       0.00001407       8.26971474
Zr       3.25805403       1.68998291       8.27931458
Zr       0.16531119       3.66649477       8.27941971
Zr      -2.93037165       5.64125558       8.29719489
Zr       9.60615963       1.41892327       8.32848367
Zr       6.51325649       3.38482803       8.30543495
Zr       3.42061315       5.35820445       8.29734631
Zr       0.32511533       7.33275864       8.30624533
Zr      -2.77615109       9.30405286       8.32977132
Zr      -5.88693440      11.26682246       8.36159716
Zr      15.95230399       1.19347180       8.39529761
Zr      12.85693771       3.13426237       8.36645931
Zr       9.76337568       5.08972868       8.34209222
Zr       6.67016139       7.05606159       8.32883765
Zr       3.57484017       9.02825107       8.32984896
Zr       0.47426669      10.99939646       8.34517554
Zr      -2.63527983      12.96467320       8.37009614
Zr      -5.75681199      14.92004053       8.39785132
Zr      -8.89129168      16.86445668       8.42216708
Zr      22.29930674       1.02460420       8.44004422
Zr      19.19971376       2.93817852       8.42486159
Zr      16.10225041       4.86536304       8.40452998
Zr      13.00654005       6.80810236       8.38299254
Zr       9.91163936       8.76508510       8.36722788
Zr       6.81576602      10.73141157       8.36217569
Zr       3.71595668      12.70072745       8.37019826
Zr       0.60838035      14.66640502       8.38856085
Zr      -2.51032438      16.62370024       8.41097350
Zr      -5.64196997      18.57031371       8.43049770
Zr      -8.78574540      20.50738940       8.44336658
Zr     -11.93788163      22.43791511       8.44928468
Zr      28.64859662       0.88743657       8.44892920
Zr      25.54596945       2.78978109       8.45090138
Zr      22.44348818       4.69565141       8.44726059
Zr      19.34206093       6.61118884       8.43712996
Zr      16.24220531       8.54143629       8.42153181
Zr      13.14396424      10.48702862       8.40570683
Zr      10.04616612      12.44572700       8.39637881
Zr       6.94637898      14.41119640       8.39802776
Zr       3.84083463      16.37615821       8.41031694
Zr       0.72592018      18.33434780       8.42862946
Zr      -2.40096919      20.28220872       8.44543481
Zr      -5.54004951      22.21937500       8.45556121
Zr      -8.68859807      24.14959469       8.45791099
Zr     -11.84190047      26.07646649       8.45335178
Zr     -14.99370488      28.00594782       8.44180400
Zr      34.99982343       0.73703962       8.42266417
Zr      31.89710733       2.65082047       8.44181346
Zr      28.79170341       4.55625690       8.45477118
Zr      25.68453910       6.45953936       8.46160961
Zr      22.57726101       8.36803157       8.46099409
Zr      19.47126317      10.28735543       8.45254302
Zr      16.36771201      12.22209635       8.43921190
Zr      13.26612091      14.17183933       8.42703718
Zr      10.16500435      16.13217270       8.42261976
Zr       7.06073264      18.09555759       8.42896606
Zr       3.94978868      20.05453859       8.44363947
Zr       0.82867864      22.00362805       8.45962962
Zr      -2.30374635      23.94129533       8.46997341
Zr      -5.44585328      25.86922846       8.47208902
Zr      -8.59394645      27.79295956       8.46584882
Zr     -11.74247599      29.71777800       8.45182019
Zr     -14.88580251      31.64890211       8.42890445
Zr     -18.01934449      33.59010532       8.39798163
Zr      41.35154790       0.53697757       8.36205610
Zr      38.25177618       2.47738825       8.39645447
Zr      35.14700093       4.40292447       8.42709738
Zr      32.03758610       6.31635832       8.45100528
Zr      28.92438297       8.22270653       8.46735289
Zr      25.80976418      10.12870969       8.47496812
Zr      22.69588362      12.04156157       8.47378147
Zr      19.58522548      13.96727475       8.46414290
Zr      16.47791603      15.90796823       8.45101470
Zr      13.37384044      17.86236892       8.44178447
Zr      10.26956334      19.82357693       8.44179427
Zr       7.16153781      21.78327139       8.45185010
Zr       4.04639206      23.73477231       8.46681018
Zr       0.92156169      25.67387598       8.47917047
Zr      -2.21232783      27.60127569       8.48425609
Zr      -5.35267773      29.52119841       8.48023200
Zr      -8.49473395      31.43991596       8.46680218
Zr     -11.63382729      33.36358821       8.44360040
Zr     -14.76482724      35.29711966       8.41026823
Zr     -17.88542247      37.24294039       8.37016765
Zr     -20.99529808      39.20127575       8.32986111
Zr      47.70240571       0.28316972       8.29727261
Zr      44.60722958       2.24846975       8.32883871
Zr      41.50657209       4.20122151       8.36722015
Zr      38.39921458       6.13948706       8.40577560
Zr      35.28485835       8.06382540       8.43925870
Zr      32.16489477       9.97759984       8.46408477
Zr      29.04207807      11.88663257       8.47893630
Zr      25.91922162      13.79740909       8.48399938
Zr      22.79966325      15.71719434       8.47907866
Zr      19.68547403      17.65099380       8.46730464
Zr      16.57688178      19.59921347       8.45478677
Zr      13.47090405      21.55732354       8.44894716
Zr      10.36469594      23.51789011       8.45334905
Zr       7.25419870      25.47246774       8.46586131
Zr       4.13692129      27.41539689       8.48021137
Zr       1.01209183      29.34466023       8.48880913
Zr      -2.11938043      31.26282422       8.48902735
Zr      -5.25314822      33.17652703       8.47936784
Zr      -8.38528646      35.09204415       8.45954647
Zr     -11.51142325      37.01571668       8.42857962
Zr     -14.62930852      38.95137420       8.38854309
Zr     -17.73791692      40.90095929       8.34518250
Zr     -20.83871191      42.86332300       8.30638100
Zr     -23.93398776      44.83492334       8.27952902
Zr      50.96051559       1.97650332       8.27928455
Zr      47.86503325       3.94818301       8.30536035
Zr      44.76361532       5.91049558       8.34207141
Zr      41.65397253       7.85995678       8.38302365
Zr      38.53507773       9.79548403       8.42159757
Zr      35.40861423      11.71911944       8.45264850
Zr      32.27710054      13.63452840       8.47358617
Zr      29.14479435      15.54819004       8.48356621
Zr      26.01569426      17.46610008       8.48387689
Zr      22.89341895      19.39536244       8.47501277
Zr      19.77853329      21.33841266       8.46159823
Zr      16.66965518      23.29323283       8.45085904
Zr      13.56378202      25.25397936       8.44925198
Zr      10.45683073      27.21220132       8.45789248
Zr       7.34628463      29.16066500       8.47213555
Zr       4.22954208      31.09497012       8.48421298
Zr       1.10748383      33.01539513       8.48928582
Zr      -2.01728018      34.92676399       8.48442594
Zr      -5.14126124      36.83614845       8.47012438
Zr      -8.26129735      38.74978430       8.44539567
Zr     -11.37494475      40.67369469       8.41096826
Zr     -14.48124742      42.61140009       8.37010566
Zr     -17.58117187      44.56354969       8.32985086
Zr     -20.67597019      46.52854951       8.29729383
Zr      48.02133400       7.60964636       8.32843109
Zr      44.91046840       9.56727484       8.36644264
Zr      41.78864343      11.51221008       8.40459169
Zr      38.65690508      13.44517552       8.43703732
Zr      35.51785235      15.36864128       8.46086436
Zr      32.37682343      17.28744931       8.47470129
Zr      29.23827061      19.20766863       8.47912725
Zr      26.10674638      21.13550591       8.47371389
Zr      22.98446267      23.07508865       8.46096435
Zr      19.87132302      25.02727763       8.44725851
Zr      16.76423068      26.98749859       8.44005022
Zr      13.65966551      28.94907081       8.44331120
Zr      10.55415791      30.90404740       8.45552002
Zr       7.44487173      32.84562202       8.47010307
Zr       4.33171051      34.77243651       8.47938192
Zr       1.21561924      36.68636838       8.48047083
Zr      -1.90049616      38.59314613       8.47222562
Zr      -5.01421429      40.49957456       8.45554230
Zr      -8.12325463      42.41258866       8.43048606
Zr     -11.22706288      44.33706548       8.39784778
Zr     -14.32581990      46.27627208       8.36164137
Zr      45.04359659      13.21835446       8.39522617
Zr      41.90896463      15.15829545       8.42499098
Zr      38.76519880      17.08870631       8.44724828
Zr      35.61698602      19.01349557       8.46165076
Zr      32.47012275      20.93777513       8.46725351
Zr      29.32996625      22.86655677       8.46411925
Zr      26.19987759      24.80515599       8.45269565
Zr      23.08094211      26.75524868       8.43702792
Zr      19.97134725      28.71507181       8.42494862
Zr      16.86722940      30.67909150       8.42222806
Zr      13.76540252      32.64013965       8.43047023
Zr      10.66230194      34.59096433       8.44535122
Zr       7.55669837      36.52713640       8.45956455
Zr       4.44853808      38.44792395       8.46685733
Zr       1.33954806      40.35752938       8.46590701
Zr      -1.76855608      42.26137095       8.45794385
Zr      -4.87395977      44.16661345       8.44331281
Zr      -7.97584173      46.07939777       8.42227493
Zr      42.01641198      18.79943954       8.44003902
Zr      38.86437839      20.72848873       8.45086582
Zr      35.71165333      22.65577379       8.45481256
Zr      32.56443809      24.58701586       8.45106962
Zr      29.42724190      26.52553794       8.43929857
Zr      26.30241004      28.47467349       8.42158843
Zr      23.18900014      30.43395313       8.40456817
Zr      20.08403534      32.39977266       8.39522773
Zr      16.98396458      34.36593743       8.39783784
Zr      13.88528638      36.32559755       8.41095169
Zr      10.78560920      38.27274886       8.42858769
Zr       7.68397728      40.20468145       8.44356713
Zr       4.58076265      42.12171399       8.45180575
Zr       1.47709908      44.02853264       8.45331072
Zr      -1.62583977      45.93109092       8.44930063
Zr      38.96035021      24.36665259       8.44894445
Zr      35.80897899      26.29809636       8.44173294
Zr      32.66659863      28.23669132       8.42699200
Zr      29.53662231      30.18487367       8.40572125
Zr      26.41936527      32.14345597       8.38301122
Zr      23.31252444      34.11001306       8.36647528
Zr      20.21278878      36.07996846       8.36167676
Zr      17.11656521      38.04694998       8.37008903
Zr      14.02088748      40.00514364       8.38855061
Zr      10.92390878      41.94957705       8.41034319
Zr       7.82492940      43.87846927       8.42913031
Zr       4.72403597      45.79333196       8.44182364
Zr      35.91490658      29.94219373       8.42271143
Zr      32.78183212      31.88830155       8.39637380
Zr      29.66158971      33.84511113       8.36704554
Zr      26.55282206      35.81125225       8.34222898
Zr      23.45246984      37.78299775       8.32858636
Zr      20.35715479      39.75555669       8.32971995
Zr      17.26358513      41.72250664       8.34515192
Zr      14.16936694      43.67922077       8.37019468
Zr      11.07289530      45.62158098       8.39801826
Zr      32.91244409      35.54300212       8.36198891
Zr      29.80258464      37.50667149       8.32884112
Zr      26.70158110      39.47833088       8.30539060
Zr      23.60618141      41.45328330       8.29731647
Zr      20.51345455      43.42686115       8.30628003
Zr      17.42023444      45.39334491       8.32982833
Zr      29.95684171      41.16995299       8.29725313
Zr      26.86127668      43.14500776       8.27925981
Zr      23.76868595      45.12159770       8.27950384
Zr       0.00000785      -0.00000039      14.64890134
Zr       6.35064977       0.28288028      14.62142014
Zr       3.09258708       1.97640346      14.63918330
Zr      -0.16545837       3.66652657      14.63930182
Zr      12.70081890       0.53517495      14.55701715
Zr       9.44561793       2.24781262      14.58884077
Zr       6.18777679       3.94793077      14.61237931
Zr       2.93000651       5.64144446      14.62125695
Zr      -0.32528343       7.33305160      14.61318002
Zr      -3.57426688       9.02865074      14.59012289
Zr      19.05069318       0.73213930      14.49645617
Zr      15.79953065       2.47447001      14.52076350
Zr      12.54537371       4.20011442      14.54851058
Zr       9.28861695       5.91042273      14.57343278
Zr       6.03127734       7.61001652      14.58876398
Zr       2.77565244       9.30457080      14.58978084
Zr      -0.47385476      11.00021643      14.57651603
Zr      -3.71412356      12.70157099      14.55214345
Zr      -6.94257794      14.41184595      14.52331088
Zr      25.40074649       0.88045222      14.46935808
Zr      22.15278267       2.64501087      14.47526685
Zr      18.90334161       4.39905890      14.48811633
Zr      15.65169676       6.13783923      14.50763220
Zr      12.39728566       7.86007331      14.53004031
Zr       9.14116928       9.56847697      14.54840697
Zr       5.88580008      11.26834033      14.55642850
Zr       2.63497356      12.96627796      14.55138132
Zr      -0.60728156      14.66806556      14.53560871
Zr      -3.83759650      16.37764379      14.51407086
Zr      -7.05532043      18.09653047      14.49375125
Zr     -10.26231809      19.82407407      14.47857984
Zr      31.75071081       1.01805607      14.47683799
Zr      28.50382648       2.78286652      14.46529565
Zr      25.25845666       4.55024737      14.46073013
Zr      22.01254419       6.31184882      14.46304911
Zr      18.76538164       8.06179360      14.47317072
Zr      15.51504049       9.79582947      14.48996989
Zr      12.26174876      11.51433591      14.50828430
Zr       9.00727126      13.22133729      14.52057468
Zr       5.75523302      14.92309770      14.52222305
Zr       2.51005317      16.62651978      14.51289561
Zr      -0.72399987      18.33688579      14.49707206
Zr      -3.94556527      20.05631442      14.48147726
Zr      -7.15518922      21.78446415      14.47135455
Zr     -10.35695931      23.51835309      14.46772844
Zr     -13.55575036      25.25413685      14.46970811
Zr      38.09954792       1.18985287      14.52063400
Zr      34.85165306       2.93297143      14.48971910
Zr      31.60757514       4.68962073      14.46680016
Zr      28.36636750       6.45393572      14.45285389
Zr      25.12631558       8.21832493      14.44645958
Zr      21.88562834       9.97552967      14.44862020
Zr      18.64134899      11.71945717      14.45897676
Zr      15.39284404      13.44788423      14.47496934
Zr      12.14084901      15.16255147      14.48964003
Zr       8.88837129      16.86923692      14.49598321
Zr       5.64011734      18.57471727      14.49156876
Zr       2.40079392      20.28590283      14.47939923
Zr      -0.82651509      22.00628768      14.46605424
Zr      -4.04169879      23.73650064      14.45760998
Zr      -7.24814166      25.47323343      14.45699591
Zr     -10.45001371      27.21247912      14.46384801
Zr     -13.65287217      28.94912220      14.47680935
Zr     -16.86161879      30.67926262      14.49595436
Zr      44.44694480       1.41817887      14.58875558
Zr      41.19603752       3.13224627      14.54844725
Zr      37.95061228       4.86184417      14.50834366
Zr      34.71062231       6.60660915      14.47499826
Zr      31.47513569       8.36331339      14.45176659
Zr      28.24243586      10.12504934      14.43819236
Zr      25.00956376      11.88466930      14.43434185
Zr      21.77343498      13.63500546      14.43940931
Zr      18.53172196      15.37165496      14.45181444
Zr      15.28410285      17.09370147      14.46677084
Zr      12.03294532      18.80548965      14.47681973
Zr       8.78235090      20.51326773      14.47683071
Zr       5.53775377      22.22427508      14.46760771
Zr       2.30340739      23.94493559      14.45448545
Zr      -0.91963784      25.67599375      14.44483345
Zr      -4.13315818      27.41626833      14.44361780
Zr      -7.34111439      29.16060930      14.45123435
Zr     -10.54866072      30.90354772      14.46759574
Zr     -13.76045019      32.63966116      14.49151507
Zr     -16.98040916      34.36571451      14.52215795
Zr     -20.21074182      36.07998988      14.55655813
Zr      50.79520132       1.69001572      14.63909840
Zr      47.54009757       3.38480200      14.61222460
Zr      44.29022496       5.08899620      14.57343309
Zr      41.04753365       6.80633735      14.53007201
Zr      37.81226229       8.53867954      14.49002145
Zr      34.58325047      10.28415352      14.45902982
Zr      31.35829872      12.03890102      14.43916817
Zr      28.13406742      13.79596795      14.42940978
Zr      24.90718358      15.54876146      14.42982120
Zr      21.67398449      17.29035333      14.43846222
Zr      18.43272075      19.01853855      14.45278112
Zr      15.18475321      20.73502882      14.46527861
Zr      11.93374865      22.44480280      14.46967463
Zr       8.68498354      24.15560631      14.46384343
Zr       5.44348334      25.87361371      14.45133630
Zr       2.21166076      27.60368791      14.43954636
Zr      -1.01069683      29.34540476      14.43461609
Zr      -4.22691077      31.09449229      14.43963421
Zr      -7.44158980      32.84441340      14.45449178
Zr     -10.65894986      34.58949867      14.47933603
Zr     -13.88265596      36.32444108      14.51283401
Zr     -17.11492219      38.04635974      14.55139590
Zr     -20.35638726      39.75522316      14.58977638
Zr     -23.60595066      41.45308902      14.62135671
Zr      50.63291247       5.35836712      14.62133369
Zr      47.38374610       7.05602556      14.58876690
Zr      44.14317619       8.76457755      14.54851062
Zr      40.91192204      10.48585838      14.50764344
Zr      37.68895007      12.22040040      14.47320332
Zr      34.47167177      13.96561100      14.44845609
Zr      31.25610430      15.71634875      14.43417708
Zr      28.03845119      17.46679662      14.42949558
Zr      24.81427499      19.21034265      14.43442981
Zr      21.58075143      20.94238584      14.44652301
Zr      18.33805783      22.66197496      14.46073958
Zr      15.08871012      24.37356225      14.46937101
Zr      11.83771141      26.08295624      14.46776664
Zr       8.59034779      27.79791131      14.45704194
Zr       5.35017229      29.52395793      14.44364153
Zr       2.11824342      31.26328780      14.43476472
Zr      -1.10727314      33.01423035      14.43502131
Zr      -4.33069446      34.77004963      14.44499320
Zr      -7.55525202      36.52432444      14.46592879
Zr     -10.78439758      38.27009737      14.49700367
Zr     -14.02006505      40.00338109      14.53558960
Zr     -17.26317269      41.72168155      14.57654521
Zr     -20.51327211      43.42642765      14.61324528
Zr     -23.76853184      45.12135266      14.63934368
Zr      47.23932416      10.73161919      14.55697299
Zr      44.01055807      12.44561544      14.52076427
Zr      40.79200363      14.17135523      14.48812913
Zr      37.58076895      15.90735718      14.46306721
Zr      34.37289222      17.65070144      14.44639606
Zr      31.16350965      19.39593774      14.43820334
Zr      27.94796362      21.13759678      14.43941864
Zr      24.72273398      22.87021303      14.44858490
Zr      21.48663201      24.59218070      14.46310858
Zr      18.24081351      26.30414141      14.47530728
Zr      14.98975414      28.01199507      14.47856163
Zr      11.73860469      29.72270577      14.47136352
Zr       8.49138665      31.44267275      14.45767397
Zr       5.25051752      33.17685534      14.44493827
Zr       2.01519342      34.92492063      14.43951936
Zr      -1.21703965      36.68286779      14.44389828
Zr      -4.44929690      38.44368362      14.45772388
Zr      -7.68458792      40.20044117      14.48156084
Zr     -10.92446004      41.94613343      14.51401923
Zr     -14.16973225      43.67724584      14.55217310
Zr     -17.42052491      45.39251639      14.59018614
Zr      43.89385143      16.13241914      14.49634505
Zr      40.68638533      17.86233940      14.47531259
Zr      37.48369577      19.59907416      14.46068175
Zr      34.28086589      21.33885115      14.45273060
Zr      31.07260485      23.07652570      14.45178647
Zr      27.85509488      24.80790060      14.45895714
Zr      24.62551401      26.52930594      14.47324234
Zr      21.38449920      28.24125352      14.48813157
Zr      18.13525866      29.94699394      14.49637364
Zr      14.88231619      31.65322713      14.49365480
Zr      11.63025764      33.36630954      14.48158310
Zr       8.38195850      35.09233859      14.46592170
Zr       5.13803613      36.83377366      14.45451543
Zr       1.89758463      38.58884038      14.45137828
Zr      -1.34232185      40.35196976      14.45697756
Zr      -4.58334885      42.11600071      14.47136368
Zr      -7.82701648      43.87337417      14.49362186
Zr     -11.07437491      45.61807221      14.52339057
Zr      40.59041102      21.55752984      14.46933396
Zr      37.39127482      23.29347826      14.46532688
Zr      34.18810196      25.02792155      14.46681957
Zr      30.97629598      26.75687415      14.47503199
Zr      27.75237309      28.47700776      14.48999165
Zr      24.51625192      30.18780883      14.50763869
Zr      21.26979498      31.89151789      14.52076174
Zr      18.01701138      33.59316760      14.52337319
Zr      14.76207844      35.29923694      14.51402736
Zr      11.50858368      37.01588956      14.49700783
Zr       8.25816814      38.74750885      14.47931289
Zr       5.01075866      40.49514529      14.46755645
Zr       1.76464351      42.25508888      14.46382046
Zr      -1.48079158      44.02179214      14.46776573
Zr      -4.72742027      45.78700483      14.47859228
Zr      37.29616502      26.98780768      14.47680402
Zr      34.08741775      28.71583332      14.48947404
Zr      30.86744607      30.43518186      14.50824444
Zr      27.63503251      32.14504354      14.53003864
Zr      24.39134568      33.84686829      14.54851549
Zr      21.13978394      35.54477747      14.55692637
Zr      17.88386969      37.24424902      14.55212741
Zr      14.62737039      38.95157100      14.53558779
Zr      11.37255493      40.67190724      14.51287964
Zr       8.12038774      42.40845079      14.49162258
Zr       4.87032666      44.16054083      14.47689899
Zr       1.62195572      45.92399037      14.46970378
Zr      33.97300738      32.40020940      14.52058538
Zr      30.74262844      34.11065662      14.54840390
Zr      27.50095750      35.81198704      14.57345281
Zr      24.25075408      37.50760118      14.58889924
Zr      20.99479685      39.20192839      14.59002759
Zr      17.73704320      40.90104572      14.57638084
Zr      14.47992480      42.61025020      14.55156017
Zr      11.22516200      44.33404812      14.52223688
Zr       7.97323921      46.07432615      14.49590927
Zr      30.60166214      37.78305413      14.58877774
Zr      27.35203686      39.47859346      14.61233588
Zr      24.09647685      41.17020701      14.62128749
Zr      20.83842377      42.86340155      14.61323495
Zr      17.58043477      44.56313624      14.58976894
Zr      14.32491443      46.27451373      14.55662272
Zr      27.19209944      43.14506606      14.63911094
Zr      23.93400319      44.83504057      14.63934400
Zr      20.67579746      46.52839416      14.62136111
S       -0.97692900       1.88520871       6.81563159
S       51.94065344       0.09709035       9.73348669
S        2.28740695       3.57728338       6.82497031
S        1.14022612       1.78109246       9.73359981
S       -0.81302712       5.55721949       6.83395082
S       -1.94587323       3.75619886       9.74281164
S       -3.91796830       7.53223900       6.85822648
S       49.01629836       5.72777665       9.76836757
S        8.64410803       3.30087009       6.86510331
S        7.47900387       1.49819275       9.76848194
S        5.54727999       5.27294056       6.85022467
S        4.39171597       3.46787188       9.75169494
S        2.44735454       7.25052363       6.85094737
S        1.30513569       5.44192058       9.75200386
S       -0.65760899       9.22628681       6.86700247
S       -1.78538149       7.41573686       9.76913829
S       -3.77013369      11.19422119       6.89390543
S       -4.88425311       9.38506439       9.79869392
S       -6.89287931      13.14981256       6.92512143
S       46.05784189      11.34583342       9.83386976
S       14.98933718       3.06825230       6.92874476
S       13.82352309       1.25133275       9.83389586
S       11.89503389       5.01500184       6.90366284
S       10.72979404       3.20069737       9.80445055
S        8.79890668       6.97677111       6.88585148
S        7.64021267       5.16266152       9.78370892
S        5.69978872       8.94801030       6.88023215
S        4.55209774       7.13292438       9.77678555
S        2.59576454      10.92223100       6.88853538
S        1.46156950       9.10574832       9.78543434
S       -0.51557110      12.89164434       6.90832940
S       -1.63624788      11.07681511       9.80727973
S       -3.63696149      14.85061112       6.93356552
S       -4.74600063      13.04147948       9.83613264
S       -6.77012226      16.79645466       6.95753263
S       -7.87047636      14.99678174       9.86517323
S       -9.91442668      18.73062843       6.97589381
S       43.04392087      16.94167251       9.88926031
S       21.32638717       2.89469845       6.97761578
S       20.17666098       1.06362846       9.88928255
S       18.23132414       4.81176433       6.96210388
S       17.07485406       2.98326899       9.86819405
S       15.13633856       6.74353859       6.94284303
S       13.97700032       4.91905131       9.84414894
S       12.03984085       8.69170597       6.92515150
S       10.88348316       6.87049110       9.82308725
S        8.94089127      10.65399815       6.91527107
S        7.79267725       8.83390743       9.81143989
S        5.83782754      12.62376640       6.91711232
S        4.70132493      10.80363021       9.81292988
S        2.72840259      14.59291221       6.93035580
S        1.60450118      12.77388412       9.82724271
S       -0.38997537      16.55409740       6.95035439
S       -1.50295909      14.73965755       9.84978013
S       -3.51951165      18.50295315       6.97014162
S       -4.62475196      16.69711523       9.87356064
S       -6.66077444      20.43954390       6.98433015
S       -7.76143546      18.64471568       9.89257310
S       -9.81139165      22.36763383       6.99133157
S      -10.91021087      20.58351690       9.90462301
S      -12.96639792      24.29161896       6.99142804
S       39.98705916      22.51721348       9.90987441
S       27.66525930       2.75675311       6.99187434
S       26.53348084       0.92312838       9.90988760
S       24.56577708       4.65979967       6.99327368
S       23.42808591       2.82331708       9.90625896
S       21.46670997       6.56734382       6.98827138
S       20.32294283       4.73213638       9.89664977
S       18.36824820       8.48570874       6.97673851
S       17.21969516       6.65514631       9.88113401
S       15.26956083      10.42025186       6.96188472
S       14.12032705       8.59448267       9.86313133
S       12.16940727      12.37107456       6.94968482
S       11.02510181      10.54905069       9.84916031
S        9.06647575      14.33402752       6.94603357
S        7.93155339      12.51341995       9.84488731
S        5.95874687      16.30107262       6.95323361
S        4.83525462      14.48136021       9.85253805
S        2.84385240      18.26373678       6.96879591
S        1.73067298      16.44656061       9.86946277
S       -0.28050139      20.21535113       6.98612067
S       -1.38693594      18.40428070       9.88927170
S       -3.41578040      22.15410756       6.99869146
S       -4.51924508      20.35193614       9.90501015
S       -6.56102561      24.08246927       7.00349277
S       -7.66441241      22.29045646       9.91322600
S       -9.71254572      26.00570580       7.00046861
S      -10.81807604      24.22299627       9.91411915
S      -12.86427147      27.92854239       6.99016245
S      -13.97479590      26.15528848       9.90830685
S      -16.01037982      29.85603904       6.97190005
S       36.92476194      28.09153457       9.89543694
S       34.00819418       2.60969159       6.97071380
S       32.89221690       0.78781382       9.89548273
S       30.90694990       4.52158928       6.98927747
S       29.78608718       2.69084757       9.90858945
S       27.80276581       6.42570298       7.00106363
S       26.67767230       4.59023859       9.91598589
S       24.69756860       8.32860918       7.00545413
S       23.56764201       6.49333037       9.91699670
S       21.59304293      10.23823614       7.00187726
S       20.45784815       8.40650213       9.91068727
S       18.48964596      12.16067436       6.99152904
S       17.35096409      10.33479732       9.89811678
S       15.38658225      14.09983459       6.97885461
S       14.24899930      12.27921526       9.88394724
S       12.28257835      16.05467782       6.97069370
S       11.15138257      14.23679179       9.87514712
S        9.17561877      18.01810807       6.97190163
S        8.05444767      16.20121057       9.87649911
S        6.06353028      19.98124384       6.98271691
S        4.95251389      18.16520803       9.88820261
S        2.94453418      21.93586125       6.99843487
S        1.84010635      20.12268780       9.90523374
S       -0.18357296      23.87726268       7.01159990
S       -1.28599966      22.06990200       9.92007487
S       -3.32088492      25.80671929       7.01744185
S       -4.42505899      24.00624768       9.92763278
S       -6.46513949      27.72795233       7.01466929
S       -7.57358208      25.93581815       9.92672374
S       -9.61138193      29.64710010       7.00311320
S      -10.72664310      27.86351824       9.91793675
S      -12.75416678      31.56964539       6.98265961
S      -13.87857346      29.79541387       9.90129969
S      -15.88886396      33.50048661       6.95318175
S      -17.02319882      31.73549902       9.87649341
S      -19.01300728      35.44384621       6.91703671
S       33.89776581      33.68579362       9.84481352
S       40.35603255       2.41611337       6.91526141
S       39.25045756       0.61219911       9.84486709
S       37.25483699       4.35350308       6.94973810
S       36.14806397       2.53898796       9.87520352
S       34.14914791       6.27529457       6.97889651
S       33.03966653       4.45217931       9.90008782
S       31.03895858       8.18500279       7.00038780
S       29.92664879       6.35684400       9.91803951
S       27.92636315      10.08893558       7.01317323
S       26.81013856       8.25958694       9.92852036
S       24.81374660      11.99444477       7.01683827
S       23.69260387      10.16781767       9.93062481
S       21.70350877      13.90896912       7.01155154
S       20.57675719      12.08739967       9.92414235
S       18.59544508      15.83845715       7.00038661
S       17.46641053      14.02235570       9.91186338
S       15.48901104      17.78456324       6.98929889
S       14.36243592      15.97219207       9.90005937
S       12.38182452      19.74333029       6.98475341
S       11.26279154      17.93203070       9.89543568
S        9.27190183      21.70643832       6.99015071
S        8.16230824      19.89459565       9.90132023
S        6.15720900      23.66423712       7.00310144
S        5.05487124      21.85254892       9.91537733
S        3.03599748      25.60989611       7.01744764
S        1.93632312      23.80029837       9.93049007
S       -0.09267024      27.54162333       7.02629424
S       -1.19469465      25.73572848       9.94011418
S       -3.22777052      29.46209965       7.02657619
S       -4.33563213      27.66140418       9.94104511
S       -6.36574825      31.37736768       7.01750730
S       -7.48235752      29.58305137       9.93280771
S       -9.50196989      33.29346277       6.99839438
S      -10.62920645      31.50757019       9.91533670
S      -12.63168589      35.21677745       6.96875547
S      -13.77140249      33.43983319       9.88814366
S      -15.75301454      37.15213963       6.93031419
S      -16.90302482      35.38329701       9.85248061
S      -18.86559562      39.10233844       6.88854516
S      -20.02109847      37.33808141       9.81288768
S      -21.97119008      41.06676267       6.85088918
S       30.92769145      39.30274250       9.77679721
S       46.71292418       2.16760667       6.85014242
S       45.59980289       0.37590287       9.77678553
S       43.61163105       4.13173350       6.88585439
S       42.50639656       2.33171711       9.81145591
S       40.50603959       6.08099057       6.92517441
S       39.40490830       4.27349684       9.84920421
S       37.39429438       8.01371958       6.96192398
S       36.29462529       6.20040442       9.88400111
S       34.27711774       9.93221190       6.99153929
S       33.17636779       8.11520333       9.91189947
S       31.15609890      11.84129622       7.01147229
S       30.05241216      10.02327472       9.93083454
S       28.03424393      13.74770059       7.02129611
S       26.92619695      11.93126232       9.94016291
S       24.91526054      15.65922756       7.02138183
S       23.80090666      13.84630857       9.93981595
S       21.80067297      17.58211878       7.01320675
S       20.68077338      15.77384233       9.93093719
S       18.69011914      19.52083561       7.00101837
S       17.56839895      17.71582534       9.91804030
S       15.58129525      21.47425151       6.99187425
S       14.46397293      19.67055300       9.90856871
S       12.47264352      23.43641102       6.99141996
S       11.36284796      21.63131233       9.90830780
S        9.36127297      25.39732813       7.00048210
S        8.25941703      23.59020735       9.91794698
S        6.24605241      27.34860218       7.01468235
S        5.14804244      25.54012840       9.93280527
S        3.12572422      29.28513117       7.02648868
S        2.02572959      27.47713073       9.94521421
S        0.00008775      31.20785687       7.03127601
S       -1.10575473      29.40166072       9.94996759
S       -3.12865249      33.12099468       7.02638921
S       -4.24361888      31.31857785       9.94534826
S       -6.25639770      35.03179406       7.01168464
S       -7.38320090      33.23449885       9.93055570
S       -9.37934076      36.94676686       6.98606369
S      -10.52003542      35.15650078       9.90516342
S      -12.49544975      38.87213903       6.95034189
S      -13.64879901      37.08936244       9.86941726
S      -15.60423120      40.81221761       6.90834132
S      -16.76637760      39.03493876       9.82723703
S      -18.70764666      42.76777803       6.86702846
S      -19.87157955      40.99272819       9.78546337
S      -21.80735121      44.73690150       6.83400366
S      -22.96632347      42.96011639       9.75207343
S      -24.90543826      46.71489464       6.81565235
S       27.99889182      44.93340351       9.73351150
S       49.97615614       3.86449762       6.83344391
S       48.85398406       2.06940697       9.75154098
S       46.87246159       5.83559243       6.86501133
S       45.76205555       4.03532477       9.78369646
S       43.76257308       7.79391365       6.90365822
S       42.66145882       5.99012409       9.82311424
S       40.64502428       9.73667659       6.94288879
S       39.55005505       7.93131602       9.86319562
S       37.52033930      11.66448764       6.97678181
S       36.42759044       9.85902378       9.89816908
S       34.39028417      13.58099187       7.00180453
S       33.29681097      11.77644027       9.92409032
S       31.25891250      15.49205044       7.01651939
S       30.16156670      13.68923889       9.93956230
S       28.13008485      17.40470233       7.02130051
S       27.02676980      15.60398740       9.94481149
S       25.00721332      19.32495407       7.01676151
S       23.89630547      17.52716754       9.94021804
S       21.89065027      21.25846959       7.00534724
S       20.77458660      19.46344724       9.92852652
S       18.77924784      23.20708618       6.99330800
S       17.66311944      21.41292402       9.91600281
S       15.67032764      25.16719342       6.98728400
S       14.55922610      23.37117220       9.90987356
S       12.56141295      27.13069657       6.99130519
S       11.45795545      25.33124201       9.91410763
S        9.45115540      29.08821226       7.00348700
S        8.35238588      27.28464230       9.92674225
S        6.33789714      31.03205823       7.01746609
S        5.23903952      29.22600222       9.94103330
S        3.22121623      32.96045269       7.02644972
S        2.11709095      31.15273095       9.95011351
S        0.10214176      34.87572062       7.02689662
S       -1.01113359      33.06834037       9.95019383
S       -3.01695361      36.78412140       7.01761492
S       -4.14160577      34.97829309       9.94029998
S       -6.13276805      38.69261315       6.99862907
S       -7.27068929      36.89028885       9.92010076
S       -9.24284818      40.60807745       6.97012273
S      -10.39458302      38.81050252       9.88926112
S      -12.34708898      42.53591964       6.93356484
S      -13.51031854      40.74316809       9.84978048
S      -15.44708991      44.47940839       6.89397702
S      -16.61558013      42.69009018       9.80731262
S      -18.54443915      46.43842305       6.85832054
S      -19.71174374      44.64970052       9.76921996
S        5.38522070       1.59849759       6.83356358
S      -22.80073239      46.61848966       9.74289219
S       47.02294841       9.49661604       6.89203945
S       45.91649622       7.69189012       9.80441798
S       43.90142219      11.44697881       6.92872936
S       42.80477704       9.64487767       9.84418923
S       40.77061744      13.38287152       6.96210473
S       39.67993174      11.58514228       9.88113820
S       37.63250295      15.30695090       6.98818434
S       36.54418560      13.51388631       9.91061872
S       34.49187781      17.22443211       7.00521804
S       33.40147811      15.43444537       9.93048298
S       31.35276068      19.14047730       7.01308148
S       30.25754712      17.35297950       9.94001738
S       28.22033921      21.06121970       7.01162093
S       27.11730182      19.27609499       9.93970215
S       25.09655483      22.99230020       7.00190990
S       23.98583922      21.20933792       9.93063376
S       21.98077707      24.93718360       6.98818539
S       20.86610865      23.15475300       9.91702573
S       18.87030604      26.89509346       6.97758699
S       17.75761899      25.11057775       9.90626122
S       15.76271715      28.85997199       6.97587096
S       14.65590644      27.07115841       9.90457866
S       12.65589769      30.82318816       6.98426617
S       11.55481329      29.02866530       9.91315923
S        9.54852493      32.77624014       6.99861638
S        8.44927732      30.97599289       9.92770036
S        6.43997407      34.71368819       7.01166011
S        5.33624198      32.90886587       9.94026630
S        3.32963791      36.63561375       7.01761415
S        2.21786567      34.82727604       9.94544389
S        0.21894902      38.54626522       7.01480377
S       -0.90345563      36.73555432       9.94121413
S       -2.89002531      40.45217722       7.00353206
S       -4.02400803      38.64064431       9.92776650
S       -5.99497091      42.36016755       6.98431447
S       -7.14171353      40.54929965       9.90499786
S       -9.09535420      44.27645751       6.95755648
S      -10.25409425      42.46810159       9.87355442
S      -12.19206870      46.20603742       6.92517428
S      -13.35930746      44.40090685       9.83615797
S       11.73949712       1.34010460       6.89206497
S      -16.45676935      46.34878073       9.79872466
S       44.02647121      15.09163030       6.95442355
S       42.93237374      13.29555939       9.86823619
S       40.88333960      17.02177175       6.97761390
S       39.79370382      15.23391683       9.89673132
S       37.73495570      18.94462054       6.99331111
S       36.64614674      17.16343892       9.91698896
S       34.58713038      20.86489792       7.00100238
S       33.49512550      19.08831249       9.92842408
S       31.44528193      22.78811869       7.00043473
S       30.34670946      21.01445738       9.93086907
S       28.31312676      24.71861562       6.99162007
S       27.20615748      22.94762345       9.92418455
S       25.19141578      26.66120323       6.97680130
S       24.07782948      24.89119603       9.91067262
S       22.07806519      28.61691580       6.96210905
S       20.96345356      26.84537689       9.89671890
S       18.97028395      30.58222064       6.95443945
S       17.85941729      28.80623459       9.88927435
S       15.86561052      32.55009688       6.95753015
S       14.76055841      30.76731942       9.89260418
S       12.76242988      34.51196016       6.97012059
S       11.66098859      32.72170344       9.90498796
S        9.65986687      36.46076924       6.98604839
S        8.55662481      34.66278359       9.92007970
S        6.55727133      38.39354889       6.99841930
S        5.44691936      36.58812975       9.93062940
S        3.45410686      40.31148284       7.00324771
S        2.33416205      38.49978990       9.93288419
S        0.35110709      42.21986424       7.00051810
S       -0.77891164      40.40253435       9.92676556
S       -2.75000108      44.12465014       6.99129775
S       -3.89044533      42.30390632       9.91322376
S       -5.84818233      46.03243477       6.97588546
S       -6.99893731      44.21083280       9.89262346
S       18.08317140       1.13764105       6.95443147
S      -10.10372985      46.12914858       9.86521650
S       40.98693609      20.65698045       6.98729079
S       39.89424934      18.87762304       9.90625976
S       37.83323600      22.58051122       6.99187581
S       36.73924215      20.80826612       9.91602725
S       34.68394487      24.50522604       6.98929662
S       33.58478845      22.73877327       9.91804438
S       31.54407701      26.43630750       6.97892619
S       30.43708796      24.67386947       9.91189744
S       28.41595662      28.37747585       6.96193853
S       27.30123695      26.61770192       9.89817162
S       25.29850989      30.33129092       6.94285231
S       24.18021921      28.57124821       9.88114576
S       22.18916879      32.29628416       6.92873853
S       21.07277390      30.53273209       9.86822566
S       19.08503058      34.26720121       6.92516128
S       17.97427837      32.49704115       9.86519563
S       15.98410998      36.23644389       6.93355977
S       14.87889691      34.45774081       9.87354508
S       12.88533167      38.19676656       6.95033440
S       11.78153231      36.40813993       9.88923496
S        9.78780299      40.14240055       6.96875815
S        8.67977661      38.34374142       9.90516633
S        6.69038594      42.07211445       6.98277965
S        5.57419310      40.26285118       9.91530344
S        3.59229287      43.98791497       6.99015626
S        2.46710838      42.16919215       9.91796146
S        0.49386640      45.89481989       6.99141335
S       -0.63976091      44.06862582       9.91411575
S       24.42271139       0.98729020       6.98730546
S       -3.74561958      45.96828474       9.90459544
S       37.93390901      26.21680257       6.98475086
S       36.82981780      24.44999732       9.90855590
S       34.78893679      28.14713810       6.97074402
S       33.67762417      26.38714878       9.90004459
S       31.65552972      30.08685313       6.94965772
S       30.53618627      28.33183496       9.88398489
S       28.53400176      32.03866907       6.92508582
S       27.40957094      30.28561828       9.86315842
S       25.42226913      34.00258127       6.90372728
S       24.29818945      32.24756237       9.84417625
S       22.31750038      35.97481141       6.89212217
S       21.19855012      34.21435145       9.83387309
S       19.21724365      37.94940087       6.89393549
S       18.10535662      36.18058454       9.83613326
S       16.11988172      39.91905603       6.90832067
S       15.01316189      38.14017735       9.84975831
S       13.02449428      41.87790287       6.93034978
S       11.91807175      40.08693711       9.86942278
S        9.92994011      43.82132474       6.95329477
S        8.81874206      42.01780616       9.88821640
S        6.83462330      45.74871982       6.97197319
S        5.71608522      43.93283635       9.90137719
S       30.76408362       0.85130054       6.98480257
S        2.61185103      45.83631931       9.90830085
S       34.90699843      31.79259660       6.94601610
S       33.78026086      30.03562436       9.87514538
S       31.78282170      33.74132062       6.91516312
S       30.64979584      31.98892227       9.84910092
S       28.66910557      35.70303430       6.88585203
S       27.53499610      33.95078921       9.82307942
S       25.56326229      37.67499965       6.86514155
S       24.43361811      35.91888644       9.80451435
S       22.46259805      39.65220143       6.85829446
S       21.34099291      37.88919046       9.79868426
S       19.36518708      41.62896482       6.86695622
S       18.25191277      39.85600845       9.80723431
S       16.26970302      43.59839976       6.88852912
S       15.16180640      41.81410339       9.82721870
S       13.17510412      45.55530480       6.91709587
S       12.06766936      43.75822503       9.85253735
S       37.10629994       0.68479778       6.94605140
S        8.96868203      45.68622667       9.87655848
S       31.92585810      37.40119597       6.88013532
S       30.78072886      35.64570997       9.81139801
S       28.81958220      39.37081086       6.85020733
S       27.67759742      37.61350118       9.78374827
S       25.71836528      41.34848386       6.83357007
S       24.58468763      39.58544803       9.76845328
S       22.62037418      43.32882898       6.83403376
S       21.49699886      41.55758133       9.76920891
S       19.52367018      45.30571861       6.85087677
S       18.40988133      43.52442951       9.78544062
S       43.45403294       0.46232057       6.88016465
S       15.31959812      45.48119181       9.81291742
S       28.98094569      43.04180889       6.82492170
S       27.83411065      41.27420330       9.75162367
S       25.88247753      45.02277681       6.81569186
S       24.74668263      43.24825166       9.74286915
S       49.81140001       0.19237477       6.82490791
S       21.66108749      45.22088763       9.75207267
S        0.97233956       1.87795745      13.18504712
S       52.90902145       1.78864977      16.10293343
S        7.31490422       2.16168081      13.14947380
S        5.21919867       2.07450867      16.08464685
S        4.06027191       3.85124666      13.16661158
S        1.95431548       3.76959649      16.09364474
S        0.80739589       5.53729889      13.16694451
S       -1.30826644       5.46301592      16.08502801
S       13.66724919       2.41058033      13.08247785
S       11.57954003       2.33207998      16.02470751
S       10.41091952       4.12137250      13.11132953
S        8.31900706       4.04363948      16.05160980
S        7.15502101       5.81863326      13.13317538
S        5.05545715       5.74473763      16.06766065
S        3.90124546       7.50870564      13.14182487
S        1.79285961       7.44057675      16.06839348
S        0.65089454       9.19798160      13.13489448
S       -1.46342843       9.13648924      16.05351674
S       -2.59301392      10.89262648      13.11415766
S       -4.70918367      10.83675958      16.02654508
S       20.02751424       2.60074986      13.02604923
S       17.93120786       2.53512675      15.96108555
S       16.77249752       4.34339585      13.04504829
S       14.67948026       4.27560283      15.98504207
S       13.51639053       6.06822282      13.06882405
S       11.42227307       5.99932421      16.01027834
S       10.26025073       7.77647789      13.09136023
S        8.16104668       7.70911560      16.03007383
S        7.00555221       9.47328001      13.10568037
S        4.89931032       9.41016939      16.03838779
S        3.75404671      11.16560703      13.10716621
S        1.64260663      11.10846949      16.03275677
S        0.50827873      12.86062195      13.09550819
S       -1.60440017      12.80891127      16.01494999
S       -2.72847711      14.56396421      13.07445504
S       -4.83748091      14.51527587      15.98986058
S       -5.95384380      16.27889644      13.05041523
S       -8.05635636      16.22931027      15.96417592
S       26.38676463       2.74277540      13.00452698
S       24.27662290       2.68690711      15.92731061
S       23.13630678       4.50763931      13.00539829
S       21.03153853       4.45137095      15.93429008
S       19.88490509       6.26217247      13.01359854
S       17.78377049       6.20348434      15.94846796
S       16.63203371       8.00101113      13.02932849
S       14.53124967       7.93931624      15.96824627
S       13.37779605       9.72208221      13.04913899
S       11.27362791       9.65931894      15.98824786
S       10.12359614      11.42813042      13.06606467
S        8.01358669      11.36758936      16.00149174
S        6.87116176      13.12563392      13.07371701
S        4.75618757      13.07004017      16.00333236
S        3.62319355      14.82254233      13.06944318
S        1.50731792      14.77266227      15.99344735
S        0.38287875      16.52580404      13.05547019
S       -1.72809008      16.48022286      15.97575930
S       -2.84632064      18.24027228      13.03746959
S       -4.94854615      18.19467614      15.95650392
S       -6.06332237      19.96625980      13.02195971
S       -8.15630335      19.91654609      15.94100226
S       -9.26898021      21.70098194      13.01236257
S      -11.35633409      21.64433663      15.93132352
S       32.74285671       2.87851396      13.01733019
S       30.61896089       2.82350497      15.92847755
S       29.49380362       4.64224850      13.00072541
S       27.37785804       4.59157127      15.91818595
S       26.24788386       6.40897565      12.99190264
S       24.13653646       6.35923974      15.91511568
S       23.00251939       8.17088602      12.99094987
S       20.89389909       8.11889352      15.91991110
S       19.75607377       9.92122881      12.99852247
S       17.64724788       9.86474431      15.93248263
S       16.50669602      11.65491743      13.01336941
S       14.39492793      11.59470808      15.94980984
S       13.25527396      13.37160504      13.03040189
S       11.13776898      13.31095969      15.96537044
S       10.00344168      15.07596057      13.04210348
S        7.88039485      15.01881180      15.97256823
S        6.75373537      16.77577725      13.04345673
S        4.62896130      16.72455125      15.96891704
S        3.50961636      18.47960670      13.03465769
S        1.38942330      18.43395231      15.95672009
S        0.27472196      20.19377694      13.02048714
S       -1.83528067      20.15022592      15.94186412
S       -2.94867633      21.92027171      13.00791634
S       -5.04586226      21.87439334      15.93033680
S       -6.16043069      23.65684217      13.00161010
S       -8.24737300      23.60449464      15.92533985
S       -9.36357725      25.39866232      13.00263121
S      -11.44520395      25.33720254      15.92675441
S      -12.56270296      27.14093121      13.01004037
S      -14.64479184      27.06813796      15.93382933
S       39.09434258       3.05320307      13.06613624
S       36.95670011       2.99008910      15.96543440
S       35.84544572       4.79353199      13.03046773
S       33.71719737       4.73940764      15.93595817
S       32.60095785       6.54861176      13.00326353
S       30.48084229       6.49989238      15.91551180
S       29.36085846       8.31155965      12.98574762
S       27.24566133       8.26519802      15.90389394
S       26.12324425      10.07592173      12.97747623
S       24.00970167      10.02736373      15.90113437
S       22.88512149      11.83320540      12.97847069
S       20.77009258      11.77963266      15.90699615
S       19.64348297      13.57704720      12.98811091
S       17.52473961      13.51795559      15.92017672
S       16.39743429      15.30391999      13.00324180
S       14.27249635      15.24178295      15.93589373
S       13.14808104      17.01606460      13.01729571
S       11.01633132      16.95536724      15.94670523
S        9.89820529      18.71988040      13.02317640
S        7.76247328      18.66435797      15.94791490
S        6.65111193      20.42433498      13.01855681
S        4.51752710      20.37508185      15.93975872
S        3.41051956      22.13753911      13.00675550
S        1.28662876      22.09283508      15.92708078
S        0.17962939      23.86370322      12.99447086
S       -1.92994712      23.81923778      15.91672829
S       -3.04070204      25.60230512      12.98797389
S       -5.13599048      25.55303636      15.91314288
S       -6.25205430      27.34804963      12.99006892
S       -8.33654894      27.29076319      15.91753908
S       -9.45813961      29.09565694      13.00056256
S      -11.53765460      29.02700730      15.92933898
S      -12.66413539      30.83928042      13.01852699
S      -14.74403394      30.75681724      15.94790581
S      -15.87520109      32.57464229      13.04340888
S      -17.96009531      32.47740334      15.97255963
S       45.43652331       3.28707758      13.13315236
S       43.29641278       3.21308888      16.03007169
S       42.18843692       4.99736250      13.09138116
S       40.05119994       4.93356412      15.98830143
S       38.94473254       6.72447508      13.04919127
S       36.81446080       6.66903686      15.94985151
S       35.70644560       8.46762708      13.01342802
S       33.58396182       8.41780023      15.92018589
S       32.47353483      10.22319884      12.98799420
S       30.35644754      10.17580296      15.90100362
S       29.24453111      11.98421464      12.97311686
S       27.12884882      11.93569241      15.89190261
S       26.01541629      13.74319527      12.96857767
S       23.89804339      13.69049245      15.89230420
S       22.78302979      15.49289353      12.97341351
S       20.66082218      15.43415696      15.90117943
S       19.54440310      17.22839316      12.98584556
S       17.41522912      17.16440515      15.91553139
S       16.30003038      18.94796340      13.00068713
S       14.16237955      18.88291468      15.92847265
S       13.05185617      20.65616932      13.01031678
S       10.90732098      20.59463316      15.93386562
S        9.80321980      22.36144494      13.01005641
S        7.65738523      22.30614923      15.92932639
S        6.55816399      24.07259439      13.00059357
S        4.41878649      24.02334754      15.91824341
S        3.32017593      25.79699419      12.98769257
S        1.19376544      25.75027094      15.90707172
S        0.09081280      27.53534236      12.97880243
S       -2.01938622      27.48655885      15.90176511
S       -3.13030652      29.28439899      12.97842206
S       -5.22590173      29.22941113      15.90540634
S       -6.34579452      31.03778789      12.98773925
S       -8.43104698      30.97303409      15.91819804
S       -9.56021623      32.78917710      13.00668966
S      -11.64000174      32.71168231      15.93970696
S      -12.77761011      34.53227304      13.03460402
S      -14.85716962      34.44039286      15.96887394
S      -16.00149686      36.26240526      13.06941134
S      -18.08559913      36.15740995      16.00335084
S      -19.23387178      37.97749172      13.10715464
S      -21.32663740      37.86346179      16.03844196
S       51.77315657       3.56322863      13.17572247
S       49.64696432       3.48273395      16.08461237
S       48.52364059       5.25398415      13.14940210
S       46.39179862       5.18259766      16.05158742
S       45.27849023       6.95553279      13.11130494
S       43.14652697       6.89245248      16.01027541
S       42.03977619       8.67130753      13.06883529
S       39.91198135       8.61470095      15.96826730
S       38.80817760      10.40328010      13.02934629
S       36.68650164      10.35064142      15.93252913
S       35.58328364      12.14855056      12.99848382
S       33.46661014      12.09769732      15.90687764
S       32.36290943      13.90243644      12.97826813
S       30.24790829      13.85096775      15.89212570
S       29.14358593      15.65856423      12.96841242
S       27.02676947      15.60373191      15.88733819
S       25.92054796      17.40979402      12.96857755
S       23.79885032      17.34946268      15.89216760
S       22.69096072      19.15011723      12.97763111
S       20.56157145      19.08352209      15.90397232
S       19.45302545      20.87568403      12.99190598
S       17.31410408      20.80575516      15.91815469
S       16.20854024      22.58849089      13.00452307
S       14.06021403      22.51982746      15.92720614
S       12.96042499      24.29424216      13.00875257
S       10.80661237      24.23091705      15.92675485
S        9.71258221      26.00317144      13.00263554
S        7.56048953      25.94652785      15.91762036
S        6.46855378      27.72304304      12.99012502
S        4.32622268      27.67098857      15.90543681
S        3.23083783      29.45839019      12.97842865
S        1.10365233      29.40685683      15.89724185
S        0.00008107      31.20785010      12.97379997
S       -2.11127118      31.15222033      15.89729536
S       -3.22554723      32.96530307      12.97901277
S       -5.32318337      32.90261887      15.90710082
S       -6.44970798      34.72410750      12.99448233
S       -8.53700094      34.65095811      15.92704461
S       -9.67563628      36.47673654      13.02042230
S      -11.75705706      36.39127076      15.95667736
S      -12.90631006      38.21701441      13.05541191
S      -14.98672509      38.11975566      15.99343882
S      -16.14313235      39.94097618      13.09549996
S      -18.22763000      39.83465289      16.03276005
S      -19.38633760      41.64877184      13.13491832
S      -21.47926325      41.53838674      16.06847872
S      -22.63483823      43.34350053      13.16707280
S      -24.73910722      43.23412567      16.09370832
S       -2.44203346       7.22612254      13.15012572
S       49.48906992       7.15927013      16.06029458
S       48.36760146       8.92241356      13.11988014
S       46.24384183       8.86213590      16.02463601
S       45.13196870      10.63095793      13.08245902
S       43.01072691      10.57506980      15.98505181
S       41.90550490      12.35375062      13.04505782
S       39.78904337      12.29950015      15.94848530
S       38.68758510      14.08975366      13.01360970
S       36.57516038      14.03517185      15.91996846
S       35.47578432      15.83544682      12.99083609
S       33.36446218      15.77928403      15.90098827
S       32.26563528      17.58538875      12.97742391
S       30.15223885      17.52628430      15.89179837
S       29.05232857      19.33437847      12.97330504
S       26.93395523      19.26985171      15.89229937
S       25.83183845      21.07574274      12.97844702
S       23.70562407      21.00479045      15.90120080
S       22.60138823      22.80525795      12.99095757
S       20.46556638      22.72904352      15.91515396
S       19.36216790      24.52107841      13.00546930
S       17.21517845      24.44384901      15.92731907
S       16.11636494      26.22795836      13.01403817
S       13.96027822      26.15449686      15.93133761
S       12.86759318      27.93383163      13.01236421
S       10.70831838      27.86684556      15.92532486
S        9.61955162      29.64795238      13.00161147
S        7.46506416      29.58709175      15.91330220
S        6.37490728      31.37700540      12.98801851
S        4.23229335      31.31935526      15.90188912
S        3.13494311      33.12231824      12.97894426
S        1.00785463      33.06371839      15.89732615
S       -0.10063514      34.88029593      12.97859562
S       -2.21295452      34.81703398      15.90206262
S       -3.33411189      36.64375752      12.98810403
S       -5.43365878      36.57335083      15.91677735
S       -6.56872435      38.40514182      13.00797253
S       -8.65842413      38.32580108      15.94180699
S       -9.80694261      40.15640324      13.03746222
S      -11.89030133      40.06795901      15.97572085
S      -13.04968546      41.89246722      13.07442645
S      -15.13156087      41.79645482      16.01495704
S      -16.29687796      43.61079877      13.11419676
S      -18.38246843      43.51054256      16.05360143
S      -19.54775431      45.31324811      13.15024827
S      -21.64132595      45.21287600      16.08518910
S        4.22589798       0.19291473      13.17580351
S        2.12109973       0.09652811      16.10298150
S       -5.82807727      12.59719021      13.08471137
S       46.11163600      12.54438244      15.99343825
S       45.00087467      14.31449520      13.05339969
S       42.89221512      14.26142667      15.96105952
S       41.78717141      16.04416796      13.02599504
S       39.68246333      15.98828765      15.93430057
S       38.58147856      17.78273905      13.00539809
S       36.47762584      17.72325079      15.91508804
S       35.37906993      19.52672282      12.99186481
S       33.27257938      19.46274409      15.90384128
S       32.17469893      21.27133049      12.98577351
S       30.06258272      21.20137769      15.90109043
S       28.96278386      23.01117890      12.98803404
S       26.84296437      22.93422800      15.90700512
S       25.74051995      24.74162639      12.99852305
S       23.61079976      24.65740840      15.92001159
S       22.50733398      26.45954983      13.01361966
S       20.36572699      26.37192716      15.93434401
S       19.26500568      28.16666780      13.02600130
S       17.11212452      28.08089983      15.94273644
S       16.01722454      29.86981819      13.02933247
S       13.85669610      29.78970934      15.94102710
S       12.76704889      31.57756355      13.02189263
S       10.60586169      31.50450406      15.93043914
S        9.51748884      33.29760280      13.00795020
S        7.36365074      33.23040834      15.91672599
S        6.27014107      35.03503246      12.99445131
S        4.12938307      34.97014170      15.90702078
S        3.02569922      36.78824647      12.98777118
S        0.89974454      36.72252708      15.90553883
S       -0.21659388      38.55180171      12.99019284
S       -2.32915259      38.48305221      15.91338696
S       -3.45909417      40.31822180      13.00161932
S       -5.56004429      40.24417332      15.93041442
S       -6.70389178      42.07932650      13.02187658
S       -8.79540327      41.99981853      15.95650413
S       -9.95189511      43.82830648      13.05037837
S      -12.03733813      43.74323303      15.98988351
S      -13.20314247      45.56017544      13.08474670
S      -15.28716786      45.47137752      16.02657614
S       10.56982532       0.46264537      13.11991719
S        8.48208960       0.37305947      16.06038909
S       -9.16720401      18.00532347      13.02933668
S       42.78934931      17.95154560      15.94273869
S       41.68251123      19.74034861      13.01403355
S       39.58807000      19.68075756      15.92732898
S       38.48443073      21.48027073      13.00451818
S       36.38792245      21.41400338      15.91811498
S       35.28603561      23.22117436      13.00067546
S       33.18372005      23.14709975      15.91539131
S       32.08155822      24.95881334      13.00331574
S       29.97114388      24.87557917      15.92017292
S       28.86679368      26.68881817      13.01339468
S       26.74603949      26.59610483      15.93252166
S       25.63960811      28.40718334      13.02934971
S       23.50703024      28.30857614      15.94847020
S       22.40182913      30.11437278      13.04505104
S       20.25641667      30.01507119      15.96106952
S       19.15612529      31.81469958      13.05340348
S       16.99984591      31.71985684      15.96415960
S       15.90573619      33.51592123      13.05037626
S       13.74395079      33.42862196      15.95649494
S       12.65331678      35.22630732      13.03745720
S       10.49358107      35.14701253      15.94180632
S        9.40098091      36.95241430      13.02043803
S        7.25039251      36.87919592      15.92700138
S        6.14964564      38.69622539      13.00672765
S        4.01244704      38.62647553      15.91819609
S        2.89995825      40.45467583      13.00058713
S        0.77596385      40.38578258      15.91762420
S       -0.34913331      42.22125662      13.00260510
S       -2.46096467      42.15174142      15.92531171
S       -3.59862286      43.98825043      13.01236281
S       -5.70039052      43.91689320      15.94100395
S       -6.85004139      45.74796601      13.02936230
S       -8.94350566      45.67384975      15.96419625
S       16.92283018       0.68235271      13.05344202
S       14.83450554       0.60549693      15.99349238
S      -12.46729173      23.44023653      13.00874862
S       39.49914459      23.37511763      15.92722254
S       38.38948842      25.18008912      13.01033276
S       36.29850190      25.10498122      15.92847420
S       35.18892152      26.91669706      13.01724633
S       33.09032757      26.83012049      15.93583402
S       31.97913107      28.64616900      13.03037737
S       29.87043742      28.54770652      15.94982748
S       28.75727959      30.36484476      13.04916134
S       26.63671346      30.25741919      15.96825070
S       25.52378232      32.07187998      13.06883136
S       23.38962895      31.96086638      15.98503795
S       22.28062597      33.76999735      13.08246781
S       20.13375084      33.66171952      15.99343761
S       19.03122562      35.46566020      13.08472693
S       16.87481739      35.36452512      15.98986122
S       15.77811580      37.16663543      13.07442341
S       13.61841431      37.07479781      15.97574445
S       12.52332704      38.88019660      13.05543875
S       10.36764080      38.79767699      15.95666352
S        9.26798700      40.61103430      13.03462325
S        7.12248092      40.53612889      15.93969272
S        6.01311987      42.35925759      13.01858323
S        3.88017602      42.28979414      15.92933321
S        2.75940397      44.12056884      13.01007995
S        0.63867022      44.05480568      15.92676154
S       -0.49305132      45.88842672      13.00876766
S       -2.60400361      45.82421773      15.93134632
S       23.28095532       0.84324033      13.01401144
S       21.17840563       0.77916667      15.94273352
S      -15.76383681      28.87940533      13.02314179
S       36.20224072      28.79332873      15.94664364
S       35.08110182      30.61022950      13.04205324
S       32.98540756      30.51025404      15.96530964
S       31.86191239      32.33003707      13.06605921
S       29.75508021      32.21850449      15.98824625
S       28.63117420      34.03758329      13.09138511
S       26.51098084      33.91975891      16.01027079
S       25.39035917      35.73463959      13.11137297
S       23.25652181      35.61732000      16.02466645
S       22.14250604      37.42644294      13.11993020
S       19.99634957      37.31493009      16.02648974
S       18.88986139      39.11958588      13.11409333
S       16.73596171      39.01762104      16.01487260
S       15.63474636      40.82140526      13.09552349
S       13.47929948      40.73050591      15.99351411
S       12.37831665      42.53797092      13.06950480
S       10.22821461      42.45792129      15.96894877
S        9.12147260      44.27238259      13.04347005
S        6.98166877      44.20167423      15.94787851
S        5.86558963      46.02355965      13.02319644
S        3.73745953      45.96013749      15.93388925
S       29.63853062       0.97513414      13.01034044
S       27.52035186       0.91658943      15.92721611
S      -19.09504125      34.29800345      13.07374339
S       32.86449591      34.18763353      16.00150995
S       31.72807258      36.00776718      13.10568902
S       29.62246841      35.88918385      16.03007502
S       28.48830819      37.70568454      13.13317522
S       26.36915332      37.58526434      16.05164532
S       25.24142217      39.39576043      13.14940704
S       23.10851541      39.27928987      16.06032034
S       21.98965522      41.08369571      13.15015590
S       19.84587229      40.97594025      16.05346799
S       18.73545423      42.77625817      13.13486724
S       16.58517595      42.67968767      16.03275646
S       15.47972207      44.47975321      13.10721370
S       13.32942639      44.39538931      16.00344568
S       12.22386239      46.19923001      13.07379767
S       10.07969441      46.12665135      15.97260194
S       35.99533803       1.12523230      13.04212848
S       33.86127697       1.06263083      15.94672429
S      -22.47436744      39.67856189      13.14183058
S       29.47406501      39.56087757      16.06773200
S       28.33189969      41.36952711      13.16651537
S       26.21366653      41.25425862      16.08460879
S       25.08074246      43.05538190      13.17575006
S       22.94965098      42.94700426      16.08504390
S       21.82744058      44.74215274      13.16697071
S       19.68632640      44.64389705      16.06840372
S       18.57332618      46.43553868      13.14181588
S       16.42745520      46.34920549      16.03848045
S       42.34627193       1.33026505      13.10572497
S       40.20176805       1.25617902      16.00158059
S      -25.88622957      45.03042080      13.18509965
S       26.04960919      44.92621372      16.10295700
S       24.91402016      46.71442217      13.18509781
S       22.78482330      46.61912810      16.09369402
S       48.68771600       1.59064161      13.16656002
S       46.55044790       1.50577369      16.06772752
