Mg I 
 1.0000000000000000
    60.9508659522999992   -0.0000000000000000    0.0000000000000000
   -30.4754329750999986   52.7849982975999978    0.0000000000000000
     0.0000000000000000    0.0000000000000000   50.0000000000000000
 Mg  I  
 434 868
Direct
  0.0000000000000000  0.0000000000000000  0.4300000000000000
  0.0783410138236887  0.0368663594460792  0.4300000000000000
  0.0414746543783683  0.0783410138252864  0.4300000000000000
  0.0046082949304600  0.1198156682025991  0.4300000000000000
  0.1935483870978736  0.0322580645167402  0.4300000000000000
  0.1566820276499653  0.0737327188940529  0.4300000000000000
  0.1198156682020570  0.1152073732713656  0.4300000000000000
  0.0829493087567366  0.1566820276505728  0.4300000000000000
  0.0460829493088282  0.1981566820278855  0.4300000000000000
  0.0092165898609199  0.2396313364051982  0.4300000000000000
  0.3087557603694706  0.0276497695855066  0.4300000000000000
  0.2718894009215623  0.0691244239628193  0.4300000000000000
  0.2350230414736540  0.1105990783401321  0.4300000000000000
  0.1981566820283336  0.1520737327193393  0.4300000000000000
  0.1612903225804253  0.1935483870966520  0.4300000000000000
  0.1244239631325170  0.2350230414739647  0.4300000000000000
  0.0875576036871965  0.2764976958531719  0.4300000000000000
  0.0506912442392882  0.3179723502304846  0.4300000000000000
  0.0138248847930205  0.3594470046077973  0.4300000000000000
  0.4239631336410676  0.0230414746542731  0.4300000000000000
  0.3870967741931594  0.0645161290315858  0.4300000000000000
  0.3502304147461983  0.1059907834107930  0.4300000000000000
  0.3133640552999307  0.1474654377881058  0.4300000000000000
  0.2764976958520223  0.1889400921654185  0.4300000000000000
  0.2396313364067019  0.2304147465446257  0.4300000000000000
  0.2027649769587936  0.2718894009219384  0.4300000000000000
  0.1658986175108852  0.3133640552992510  0.4300000000000000
  0.1290322580646176  0.3548387096765638  0.4300000000000000
  0.0921658986176565  0.3963133640557709  0.4300000000000000
  0.0552995391697482  0.4377880184330837  0.4300000000000000
  0.0184331797234805  0.4792626728103964  0.4300000000000000
  0.5391705069126645  0.0184331797230396  0.4300000000000000
  0.5023041474657036  0.0599078341022468  0.4300000000000000
  0.4654377880194360  0.1013824884795595  0.4300000000000000
  0.4285714285715276  0.1428571428568722  0.4300000000000000
  0.3917050691236194  0.1843317972341849  0.4300000000000000
  0.3548387096782989  0.2258064516133921  0.4300000000000000
  0.3179723502303906  0.2672811059907049  0.4300000000000000
  0.2811059907824823  0.3087557603680176  0.4300000000000000
  0.2442396313371619  0.3502304147472248  0.4300000000000000
  0.2073732718892535  0.3917050691245375  0.4300000000000000
  0.1705069124413452  0.4331797235018502  0.4300000000000000
  0.1336405529960248  0.4746543778810574  0.4300000000000000
  0.0967741935481164  0.5161290322583700  0.4300000000000000
  0.0599078341018488  0.5576036866356828  0.4300000000000000
  0.0230414746539405  0.5990783410129955  0.4300000000000000
  0.6543778801842617  0.0138248847918061  0.4300000000000000
  0.6175115207373005  0.0552995391710133  0.4300000000000000
  0.5806451612910329  0.0967741935483260  0.4300000000000000
  0.5437788018431247  0.1382488479256387  0.4300000000000000
  0.5069124423961636  0.1797235023048459  0.4300000000000000
  0.4700460829498959  0.2211981566821586  0.4300000000000000
  0.4331797235019876  0.2626728110594713  0.4300000000000000
  0.3963133640550265  0.3041474654386785  0.4300000000000000
  0.3594470046087588  0.3456221198159912  0.4300000000000000
  0.3225806451608506  0.3870967741933040  0.4300000000000000
  0.2857142857145829  0.4285714285706166  0.4300000000000000
  0.2488479262676218  0.4700460829498239  0.4300000000000000
  0.2119815668197135  0.5115207373271367  0.4300000000000000
  0.1751152073734459  0.5529953917044493  0.4300000000000000
  0.1382488479264848  0.5944700460836565  0.4300000000000000
  0.1013824884785764  0.6359447004609692  0.4300000000000000
  0.0645161290323089  0.6774193548382820  0.4300000000000000
  0.0276497695853478  0.7188940092174891  0.4300000000000000
  0.7695852534568058  0.0092165898624670  0.4300000000000000
  0.7327188940088977  0.0506912442397798  0.4300000000000000
  0.6958525345626300  0.0921658986170925  0.4300000000000000
  0.6589861751156690  0.1336405529962996  0.4300000000000000
  0.6221198156677606  0.1751152073736124  0.4300000000000000
  0.5852534562214929  0.2165898617509251  0.4300000000000000
  0.5483870967735845  0.2580645161282378  0.4300000000000000
  0.5115207373282642  0.2995391705074450  0.4300000000000000
  0.4746543778803559  0.3410138248847577  0.4300000000000000
  0.4377880184324476  0.3824884792620705  0.4300000000000000
  0.4009216589871271  0.4239631336412776  0.4300000000000000
  0.3640552995392189  0.4654377880185904  0.4300000000000000
  0.3271889400913105  0.5069124423959031  0.4300000000000000
  0.2903225806459901  0.5483870967751102  0.4300000000000000
  0.2534562211980818  0.5898617511524230  0.4300000000000000
  0.2165898617501735  0.6313364055297357  0.4300000000000000
  0.1797235023039058  0.6728110599070484  0.4300000000000000
  0.1428571428569447  0.7142857142862555  0.4300000000000000
  0.1059907834106771  0.7557603686635683  0.4300000000000000
  0.0691244239627687  0.7972350230408810  0.4300000000000000
  0.0322580645158077  0.8387096774200883  0.4300000000000000
  0.8847926267284030  0.0046082949312335  0.4300000000000000
  0.8479262672804946  0.0460829493085462  0.4300000000000000
  0.8110599078342271  0.0875576036858590  0.4300000000000000
  0.7741935483872658  0.1290322580650662  0.4300000000000000
  0.7373271889409982  0.1705069124423788  0.4300000000000000
  0.7004608294930900  0.2119815668196916  0.4300000000000000
  0.6635944700461290  0.2534562211988988  0.4300000000000000
  0.6267281105998613  0.2949308755762115  0.4300000000000000
  0.5898617511519529  0.3364055299535242  0.4300000000000000
  0.5529953917049919  0.3778801843327314  0.4300000000000000
  0.5161290322587242  0.4193548387100441  0.4300000000000000
  0.4792626728108159  0.4608294930873568  0.4300000000000000
  0.4423963133629076  0.5023041474646696  0.4300000000000000
  0.4055299539175871  0.5437788018438767  0.4300000000000000
  0.3686635944696788  0.5852534562211894  0.4300000000000000
  0.3317972350234111  0.6267281105985021  0.4300000000000000
  0.2949308755764500  0.6682027649777094  0.4300000000000000
  0.2580645161285418  0.7096774193550220  0.4300000000000000
  0.2211981566822741  0.7511520737323347  0.4300000000000000
  0.1843317972353130  0.7926267281115419  0.4300000000000000
  0.1474654377874047  0.8341013824888547  0.4300000000000000
  0.1105990783411371  0.8755760368661675  0.4300000000000000
  0.0737327188932287  0.9170506912434800  0.4300000000000000
  0.0368663594479083  0.9585253456226873  0.4300000000000000
  0.9631336405520917  0.0414746543773127  0.4300000000000000
  0.9262672811067713  0.0829493087565199  0.4300000000000000
  0.8894009216588630  0.1244239631338326  0.4300000000000000
  0.8525345622125953  0.1658986175111453  0.4300000000000000
  0.8156682027656341  0.2073732718903525  0.4300000000000000
  0.7788018433177258  0.2488479262676652  0.4300000000000000
  0.7419354838714581  0.2903225806449780  0.4300000000000000
  0.7050691244235500  0.3317972350222906  0.4300000000000000
  0.6682027649765888  0.3732718894014979  0.4300000000000000
  0.6313364055303212  0.4147465437788106  0.4300000000000000
  0.5944700460824128  0.4562211981561233  0.4300000000000000
  0.5576036866370925  0.4976958525353305  0.4300000000000000
  0.5207373271891841  0.5391705069126432  0.4300000000000000
  0.4838709677412758  0.5806451612899559  0.4300000000000000
  0.4470046082959553  0.6221198156691631  0.4300000000000000
  0.4101382488480471  0.6635944700464759  0.4300000000000000
  0.3732718894001388  0.7050691244237886  0.4300000000000000
  0.3364055299538711  0.7465437788011012  0.4300000000000000
  0.2995391705069100  0.7880184331803085  0.4300000000000000
  0.2626728110606424  0.8294930875576212  0.4300000000000000
  0.2258064516127340  0.8709677419349339  0.4300000000000000
  0.1889400921657730  0.9124423963141410  0.4300000000000000
  0.1520737327195053  0.9539170506914538  0.4300000000000000
  0.1152073732715970  0.9953917050687666  0.4300000000000000
  0.9677419354841923  0.1612903225799118  0.4300000000000000
  0.9308755760372313  0.2027649769591190  0.4300000000000000
  0.8940092165893229  0.2442396313364317  0.4300000000000000
  0.8571428571430553  0.2857142857137445  0.4300000000000000
  0.8202764976960941  0.3271889400929516  0.4300000000000000
  0.7834101382498265  0.3686635944702643  0.4300000000000000
  0.7465437788019181  0.4101382488475771  0.4300000000000000
  0.7096774193549571  0.4516129032267842  0.4300000000000000
  0.6728110599086895  0.4930875576040970  0.4300000000000000
  0.6359447004607812  0.5345622119814097  0.4300000000000000
  0.5990783410128728  0.5760368663587224  0.4300000000000000
  0.5622119815675524  0.6175115207379295  0.4300000000000000
  0.5253456221196441  0.6589861751152423  0.4300000000000000
  0.4884792626717358  0.7004608294925551  0.4300000000000000
  0.4516129032264153  0.7419354838717622  0.4300000000000000
  0.4147465437785071  0.7834101382490749  0.4300000000000000
  0.3778801843322394  0.8248847926263876  0.4300000000000000
  0.3410138248852784  0.8663594470055949  0.4300000000000000
  0.3041474654373700  0.9078341013829075  0.4300000000000000
  0.2672811059911023  0.9493087557602202  0.4300000000000000
  0.2304147465431940  0.9907834101375330  0.4300000000000000
  0.9723502304146523  0.2811059907825109  0.4300000000000000
  0.9354838709676913  0.3225806451617181  0.4300000000000000
  0.8986175115214236  0.3640552995390308  0.4300000000000000
  0.8617511520735153  0.4055299539163436  0.4300000000000000
  0.8248847926265542  0.4470046082955508  0.4300000000000000
  0.7880184331802864  0.4884792626728635  0.4300000000000000
  0.7511520737323781  0.5299539170501761  0.4300000000000000
  0.7142857142854171  0.5714285714293833  0.4300000000000000
  0.6774193548391495  0.6129032258066961  0.4300000000000000
  0.6405529953912411  0.6543778801840088  0.4300000000000000
  0.6036866359459208  0.6958525345632161  0.4300000000000000
  0.5668202764980124  0.7373271889405286  0.4300000000000000
  0.5299539170501041  0.7788018433178414  0.4300000000000000
  0.4930875576038365  0.8202764976951542  0.4300000000000000
  0.4562211981568753  0.8617511520743614  0.4300000000000000
  0.4193548387089670  0.9032258064516741  0.4300000000000000
  0.3824884792626994  0.9447004608289867  0.4300000000000000
  0.3456221198157383  0.9861751152081940  0.4300000000000000
  0.9769585253460594  0.4009216589870045  0.4300000000000000
  0.9400921658981513  0.4423963133643172  0.4300000000000000
  0.9032258064518836  0.4838709677416300  0.4300000000000000
  0.8663594470039752  0.5253456221189426  0.4300000000000000
  0.8294930875586549  0.5668202764981499  0.4300000000000000
  0.7926267281107464  0.6082949308754626  0.4300000000000000
  0.7557603686628381  0.6497695852527753  0.4300000000000000
  0.7188940092175177  0.6912442396319824  0.4300000000000000
  0.6820276497696094  0.7327188940092952  0.4300000000000000
  0.6451612903217011  0.7741935483866079  0.4300000000000000
  0.6082949308763808  0.8156682027658152  0.4300000000000000
  0.5714285714284723  0.8571428571431278  0.4300000000000000
  0.5345622119805640  0.8986175115204406  0.4300000000000000
  0.4976958525352436  0.9400921658996477  0.4300000000000000
  0.4608294930873353  0.9815668202769604  0.4300000000000000
  0.9815668202765194  0.5207373271896036  0.4300000000000000
  0.9447004608302517  0.5622119815669163  0.4300000000000000
  0.9078341013823436  0.6036866359442290  0.4300000000000000
  0.8709677419353824  0.6451612903234363  0.4300000000000000
  0.8341013824891148  0.6866359447007490  0.4300000000000000
  0.7972350230412064  0.7281105990780616  0.4300000000000000
  0.7603686635932980  0.7695852534553743  0.4300000000000000
  0.7235023041479778  0.8110599078345816  0.4300000000000000
  0.6866359447000694  0.8525345622118943  0.4300000000000000
  0.6497695852538017  0.8940092165892070  0.4300000000000000
  0.6129032258068406  0.9354838709684141  0.4300000000000000
  0.5760368663589323  0.9769585253457269  0.4300000000000000
  0.9861751152069795  0.6405529953922028  0.4300000000000000
  0.9493087557607117  0.6820276497695154  0.4300000000000000
  0.9124423963128035  0.7235023041468281  0.4300000000000000
  0.8755760368674830  0.7649769585260353  0.4300000000000000
  0.8387096774195748  0.8064516129033481  0.4300000000000000
  0.8018433179716664  0.8479262672806608  0.4300000000000000
  0.7649769585263461  0.8894009216598679  0.4300000000000000
  0.7281105990784378  0.9308755760371807  0.4300000000000000
  0.6912442396305293  0.9723502304144933  0.4300000000000000
  0.9907834101390800  0.7603686635948018  0.4300000000000000
  0.9539170506911717  0.8018433179721145  0.4300000000000000
  0.9170506912432635  0.8433179723494273  0.4300000000000000
  0.8801843317979430  0.8847926267286345  0.4300000000000000
  0.8433179723500346  0.9262672811059471  0.4300000000000000
  0.8064516129021264  0.9677419354832599  0.4300000000000000
  0.9953917050695400  0.8801843317974009  0.4300000000000000
  0.9585253456216317  0.9216589861747136  0.4300000000000000
  0.9216589861763113  0.9631336405539208  0.4300000000000000
  0.0000000000000000  0.0000000000000000  0.5700000000000001
  0.1198156682026718  0.0046082949312335  0.5700000000000001
  0.0783410138237921  0.0414746543773127  0.5700000000000001
  0.0368663594475003  0.0783410138252864  0.5700000000000001
  0.2396313364053435  0.0092165898624670  0.5700000000000001
  0.1981566820281045  0.0460829493085462  0.5700000000000001
  0.1566820276501720  0.0829493087565199  0.5700000000000001
  0.1152073732712923  0.1198156682025991  0.5700000000000001
  0.0737327188950005  0.1566820276505728  0.5700000000000001
  0.0322580645161208  0.1935483870966520  0.5700000000000001
  0.3594470046087087  0.0138248847918061  0.5700000000000001
  0.3179723502307763  0.0506912442397798  0.5700000000000001
  0.2764976958518965  0.0875576036858590  0.5700000000000001
  0.2350230414739641  0.1244239631338326  0.5700000000000001
  0.1935483870967251  0.1612903225799118  0.5700000000000001
  0.1520737327187926  0.1981566820278855  0.5700000000000001
  0.1105990783399129  0.2350230414739647  0.5700000000000001
  0.0691244239636211  0.2718894009219384  0.5700000000000001
  0.0276497695847414  0.3087557603680176  0.5700000000000001
  0.4792626728113805  0.0184331797230396  0.5700000000000001
  0.4377880184334480  0.0552995391710133  0.5700000000000001
  0.3963133640545683  0.0921658986170925  0.5700000000000001
  0.3548387096782766  0.1290322580650662  0.5700000000000001
  0.3133640552993968  0.1658986175111453  0.5700000000000001
  0.2718894009214644  0.2027649769591190  0.5700000000000001
  0.2304147465442253  0.2396313364051982  0.5700000000000001
  0.1889400921662928  0.2764976958531719  0.5700000000000001
  0.1474654377874132  0.3133640552992510  0.5700000000000001
  0.1059907834111214  0.3502304147472248  0.5700000000000001
  0.0645161290322417  0.3870967741933040  0.5700000000000001
  0.0230414746543092  0.4239631336412776  0.5700000000000001
  0.5990783410140523  0.0230414746542731  0.5700000000000001
  0.5576036866361198  0.0599078341022468  0.5700000000000001
  0.5161290322588807  0.0967741935483260  0.5700000000000001
  0.4746543778809483  0.1336405529962996  0.5700000000000001
  0.4331797235020685  0.1705069124423788  0.5700000000000001
  0.3917050691241361  0.2073732718903525  0.5700000000000001
  0.3502304147468971  0.2442396313364317  0.5700000000000001
  0.3087557603680174  0.2811059907825109  0.5700000000000001
  0.2672811059900849  0.3179723502304846  0.5700000000000001
  0.2258064516128459  0.3548387096765638  0.5700000000000001
  0.1843317972349134  0.3917050691245375  0.5700000000000001
  0.1428571428560337  0.4285714285706166  0.5700000000000001
  0.1013824884797420  0.4654377880185904  0.5700000000000001
  0.0599078341008623  0.5023041474646696  0.5700000000000001
  0.0184331797229298  0.5391705069126432  0.5700000000000001
  0.7188940092167240  0.0276497695855066  0.5700000000000001
  0.6774193548378442  0.0645161290315858  0.5700000000000001
  0.6359447004615526  0.1013824884795595  0.5700000000000001
  0.5944700460826727  0.1382488479256387  0.5700000000000001
  0.5529953917047404  0.1751152073736124  0.5700000000000001
  0.5115207373275014  0.2119815668196916  0.5700000000000001
  0.4700460829495689  0.2488479262676652  0.5700000000000001
  0.4285714285706892  0.2857142857137445  0.5700000000000001
  0.3870967741943974  0.3225806451617181  0.5700000000000001
  0.3456221198155177  0.3594470046077973  0.5700000000000001
  0.3041474654375852  0.3963133640557709  0.5700000000000001
  0.2626728110603462  0.4331797235018502  0.5700000000000001
  0.2211981566824137  0.4700460829498239  0.5700000000000001
  0.1797235023035340  0.5069124423959031  0.5700000000000001
  0.1382488479272422  0.5437788018438767  0.5700000000000001
  0.0967741935483625  0.5806451612899559  0.5700000000000001
  0.0552995391704300  0.6175115207379295  0.5700000000000001
  0.0138248847931910  0.6543778801840088  0.5700000000000001
  0.8387096774193958  0.0322580645167402  0.5700000000000001
  0.7972350230421568  0.0691244239628193  0.5700000000000001
  0.7557603686642244  0.1059907834107930  0.5700000000000001
  0.7142857142853447  0.1428571428568722  0.5700000000000001
  0.6728110599090528  0.1797235023048459  0.5700000000000001
  0.6313364055301731  0.2165898617509251  0.5700000000000001
  0.5898617511522406  0.2534562211988988  0.5700000000000001
  0.5483870967733609  0.2903225806449780  0.5700000000000001
  0.5069124423970691  0.3271889400929516  0.5700000000000001
  0.4654377880181894  0.3640552995390308  0.5700000000000001
  0.4239631336402570  0.4009216589870045  0.5700000000000001
  0.3824884792630179  0.4377880184330837  0.5700000000000001
  0.3410138248850855  0.4746543778810574  0.5700000000000001
  0.2995391705062058  0.5115207373271367  0.5700000000000001
  0.2580645161299140  0.5483870967751102  0.5700000000000001
  0.2165898617510343  0.5852534562211894  0.5700000000000001
  0.1751152073731018  0.6221198156691631  0.5700000000000001
  0.1336405529958627  0.6589861751152423  0.5700000000000001
  0.0921658986179304  0.6958525345632161  0.5700000000000001
  0.0506912442390507  0.7327188940092952  0.5700000000000001
  0.0092165898618116  0.7695852534553743  0.5700000000000001
  0.9585253456211204  0.0368663594460792  0.5700000000000001
  0.9170506912448285  0.0737327188940529  0.5700000000000001
  0.8755760368659489  0.1105990783401321  0.5700000000000001
  0.8341013824880164  0.1474654377881058  0.5700000000000001
  0.7926267281107773  0.1843317972341849  0.5700000000000001
  0.7511520737328450  0.2211981566821586  0.5700000000000001
  0.7096774193539651  0.2580645161282378  0.5700000000000001
  0.6682027649776734  0.2949308755762115  0.5700000000000001
  0.6267281105987936  0.3317972350222906  0.5700000000000001
  0.5852534562208612  0.3686635944702643  0.5700000000000001
  0.5437788018436223  0.4055299539163436  0.5700000000000001
  0.5023041474656897  0.4423963133643172  0.5700000000000001
  0.4608294930868100  0.4792626728103964  0.5700000000000001
  0.4193548387105182  0.5161290322583700  0.5700000000000001
  0.3778801843316386  0.5529953917044493  0.5700000000000001
  0.3364055299537061  0.5898617511524230  0.5700000000000001
  0.2949308755764670  0.6267281105985021  0.5700000000000001
  0.2534562211985346  0.6635944700464759  0.5700000000000001
  0.2119815668196549  0.7004608294925551  0.5700000000000001
  0.1705069124417224  0.7373271889405286  0.5700000000000001
  0.1290322580644834  0.7741935483866079  0.5700000000000001
  0.0875576036865510  0.8110599078345816  0.5700000000000001
  0.0460829493076712  0.8479262672806608  0.5700000000000001
  0.0046082949313794  0.8847926267286345  0.5700000000000001
  0.9953917050686205  0.1152073732713656  0.5700000000000001
  0.9539170506923288  0.1520737327193393  0.5700000000000001
  0.9124423963134491  0.1889400921654185  0.5700000000000001
  0.8709677419355166  0.2258064516133921  0.5700000000000001
  0.8294930875582776  0.2626728110594713  0.5700000000000001
  0.7880184331803451  0.2995391705074450  0.5700000000000001
  0.7465437788014654  0.3364055299535242  0.5700000000000001
  0.7050691244235329  0.3732718894014979  0.5700000000000001
  0.6635944700462939  0.4101382488475771  0.5700000000000001
  0.6221198156683616  0.4470046082955508  0.5700000000000001
  0.5806451612894817  0.4838709677416300  0.5700000000000001
  0.5391705069131900  0.5207373271896036  0.5700000000000001
  0.4976958525343103  0.5576036866356828  0.5700000000000001
  0.4562211981563778  0.5944700460836565  0.5700000000000001
  0.4147465437791388  0.6313364055297357  0.5700000000000001
  0.3732718894012064  0.6682027649777094  0.5700000000000001
  0.3317972350223266  0.7050691244237886  0.5700000000000001
  0.2903225806460348  0.7419354838717622  0.5700000000000001
  0.2488479262671551  0.7788018433178414  0.5700000000000001
  0.2073732718892227  0.8156682027658152  0.5700000000000001
  0.1658986175119836  0.8525345622118943  0.5700000000000001
  0.1244239631340512  0.8894009216598679  0.5700000000000001
  0.0829493087551715  0.9262672811059471  0.5700000000000001
  0.0414746543788797  0.9631336405539208  0.5700000000000001
  0.9907834101381884  0.2304147465446257  0.5700000000000001
  0.9493087557609493  0.2672811059907049  0.5700000000000001
  0.9078341013830169  0.3041474654386785  0.5700000000000001
  0.8663594470041370  0.3410138248847577  0.5700000000000001
  0.8248847926278454  0.3778801843327314  0.5700000000000001
  0.7834101382489657  0.4147465437788106  0.5700000000000001
  0.7419354838710331  0.4516129032267842  0.5700000000000001
  0.7004608294937942  0.4884792626728635  0.5700000000000001
  0.6589861751149145  0.5253456221189426  0.5700000000000001
  0.6175115207369820  0.5622119815669163  0.5700000000000001
  0.5760368663597430  0.5990783410129955  0.5700000000000001
  0.5345622119818105  0.6359447004609692  0.5700000000000001
  0.4930875576029308  0.6728110599070484  0.5700000000000001
  0.4516129032266391  0.7096774193550220  0.5700000000000001
  0.4101382488477593  0.7465437788011012  0.5700000000000001
  0.3686635944698269  0.7834101382490749  0.5700000000000001
  0.3271889400909472  0.8202764976951542  0.5700000000000001
  0.2857142857146554  0.8571428571431278  0.5700000000000001
  0.2442396313357757  0.8940092165892070  0.5700000000000001
  0.2027649769578433  0.9308755760371807  0.5700000000000001
  0.1612903225806042  0.9677419354832599  0.5700000000000001
  0.9861751152084497  0.3456221198159912  0.5700000000000001
  0.9447004608295700  0.3824884792620705  0.5700000000000001
  0.9032258064516375  0.4193548387100441  0.5700000000000001
  0.8617511520727578  0.4562211981561233  0.5700000000000001
  0.8202764976964659  0.4930875576040970  0.5700000000000001
  0.7788018433175863  0.5299539170501761  0.5700000000000001
  0.7373271889396539  0.5668202764981499  0.5700000000000001
  0.6958525345624148  0.6036866359442290  0.5700000000000001
  0.6543778801844824  0.6405529953922028  0.5700000000000001
  0.6129032258056026  0.6774193548382820  0.5700000000000001
  0.5714285714293108  0.7142857142862555  0.5700000000000001
  0.5299539170504312  0.7511520737323347  0.5700000000000001
  0.4884792626724987  0.7880184331803085  0.5700000000000001
  0.4470046082952596  0.8248847926263876  0.5700000000000001
  0.4055299539173272  0.8617511520743614  0.5700000000000001
  0.3640552995384475  0.8986175115204406  0.5700000000000001
  0.3225806451621556  0.9354838709684141  0.5700000000000001
  0.2811059907832760  0.9723502304144933  0.5700000000000001
  0.9815668202770703  0.4608294930873568  0.5700000000000001
  0.9400921658991378  0.4976958525353305  0.5700000000000001
  0.8986175115202581  0.5345622119814097  0.5700000000000001
  0.8571428571439662  0.5714285714293833  0.5700000000000001
  0.8156682027650866  0.6082949308754626  0.5700000000000001
  0.7741935483871540  0.6451612903234363  0.5700000000000001
  0.7327188940099150  0.6820276497695154  0.5700000000000001
  0.6912442396319827  0.7188940092174891  0.5700000000000001
  0.6497695852531029  0.7557603686635683  0.5700000000000001
  0.6082949308768111  0.7926267281115419  0.5700000000000001
  0.5668202764979314  0.8294930875576212  0.5700000000000001
  0.5253456221199989  0.8663594470055949  0.5700000000000001
  0.4838709677411193  0.9032258064516741  0.5700000000000001
  0.4423963133648274  0.9400921658996477  0.5700000000000001
  0.4009216589859477  0.9769585253457269  0.5700000000000001
  0.9769585253456907  0.5760368663587224  0.5700000000000001
  0.9354838709677583  0.6129032258066961  0.5700000000000001
  0.8940092165888786  0.6497695852527753  0.5700000000000001
  0.8525345622125868  0.6866359447007490  0.5700000000000001
  0.8110599078337072  0.7235023041468281  0.5700000000000001
  0.7695852534557747  0.7603686635948018  0.5700000000000001
  0.7281105990785356  0.7972350230408810  0.5700000000000001
  0.6866359447006032  0.8341013824888547  0.5700000000000001
  0.6451612903217234  0.8709677419349339  0.5700000000000001
  0.6036866359454316  0.9078341013829075  0.5700000000000001
  0.5622119815665519  0.9447004608289867  0.5700000000000001
  0.5207373271886194  0.9815668202769604  0.5700000000000001
  0.9723502304152585  0.6912442396319824  0.5700000000000001
  0.9308755760363788  0.7281105990780616  0.5700000000000001
  0.8894009216600870  0.7649769585260353  0.5700000000000001
  0.8479262672812073  0.8018433179721145  0.5700000000000001
  0.8064516129032751  0.8387096774200883  0.5700000000000001
  0.7649769585260359  0.8755760368661675  0.5700000000000001
  0.7235023041481035  0.9124423963141410  0.5700000000000001
  0.6820276497692238  0.9493087557602202  0.5700000000000001
  0.6405529953912913  0.9861751152081940  0.5700000000000001
  0.9677419354838792  0.8064516129033481  0.5700000000000001
  0.9262672811049996  0.8433179723494273  0.5700000000000001
  0.8847926267287076  0.8801843317974009  0.5700000000000001
  0.8433179723498280  0.9170506912434800  0.5700000000000001
  0.8018433179718956  0.9539170506914538  0.5700000000000001
  0.7603686635946565  0.9907834101375330  0.5700000000000001
  0.9631336405524997  0.9216589861747136  0.5700000000000001
  0.9216589861762080  0.9585253456226873  0.5700000000000001
  0.8801843317973282  0.9953917050687666  0.5700000000000001
  0.0015360983550413  0.0399385572642114  0.3955999994200000
  0.0399385560165105  0.0384024565572860  0.4644000005800000
  0.0798771121813178  0.0768049167121851  0.3955999994200000
  0.1182795698411465  0.0752688160052597  0.4644000005800000
  0.0430107527334095  0.1182795710894978  0.3955999994200000
  0.0814132103948788  0.1167434703825724  0.4644000005800000
  0.0061443932855012  0.1597542254668105  0.3955999994200000
  0.0445468509469705  0.1582181247598851  0.4644000005800000
  0.1950844854529149  0.0721966217809516  0.3955999994200000
  0.2334869431127435  0.0706605210740262  0.4644000005800000
  0.1582181260050065  0.1136712761582643  0.3955999994200000
  0.1966205836664759  0.1121351754513389  0.4644000005800000
  0.1213517665596861  0.1551459305374715  0.3955999994200000
  0.1597542242185676  0.1536098298286516  0.4644000005800000
  0.0844854071117778  0.1966205849147842  0.3955999994200000
  0.1228878647732471  0.1950844842078588  0.4644000005800000
  0.0476190476638695  0.2380952392920969  0.3955999994200000
  0.0860215053253388  0.2365591385851715  0.4644000005800000
  0.0107526882176019  0.2795698936694097  0.3955999994200000
  0.0491551458774305  0.2780337929624842  0.4644000005800000
  0.3102918587245119  0.0675883268497181  0.3955999994200000
  0.3486943163859812  0.0660522261427926  0.4644000005800000
  0.2734254992766036  0.1090629812270308  0.3955999994200000
  0.3118279569380729  0.1075268805201054  0.4644000005800000
  0.2365591398312832  0.1505376356062380  0.3955999994200000
  0.2749615974911118  0.1490015348993126  0.4644000005800000
  0.1996927803833748  0.1920122899835507  0.3955999994200000
  0.2380952380448441  0.1904761892766253  0.4644000005800000
  0.1628264209354665  0.2334869443608634  0.3955999994200000
  0.2012288785969358  0.2319508436539380  0.4644000005800000
  0.1259600614901461  0.2749615987400706  0.3955999994200000
  0.1643625191490275  0.2734254980312507  0.4644000005800000
  0.0890937020422378  0.3164362531173833  0.3955999994200000
  0.1274961597037071  0.3149001524104579  0.4644000005800000
  0.0522273425943295  0.3579109074946960  0.3955999994200000
  0.0906298002557987  0.3563748067877706  0.4644000005800000
  0.0153609831490091  0.3993855618739032  0.3955999994200000
  0.0537634408095311  0.3978494611650834  0.4644000005800000
  0.4254992319961090  0.0629800319184845  0.3955999994200000
  0.4639016896575782  0.0614439312115591  0.4644000005800000
  0.3886328725491479  0.1044546862976917  0.3955999994200000
  0.4270353302096699  0.1029185855888718  0.4644000005800000
  0.3517665131028802  0.1459293406750045  0.3955999994200000
  0.3901689707627088  0.1443932399680790  0.4644000005800000
  0.3149001536549719  0.1874039950523171  0.3955999994200000
  0.3533026113164411  0.1858678943453918  0.4644000005800000
  0.2780337942080108  0.2288786494315244  0.3955999994200000
  0.3164362518685328  0.2273425487227045  0.4644000005800000
  0.2411674347617431  0.2703533038088370  0.3955999994200000
  0.2795698924215718  0.2688172031019117  0.4644000005800000
  0.2043010753138348  0.3118279581861498  0.3955999994200000
  0.2427035329753041  0.3102918574792244  0.4644000005800000
  0.1674347158675671  0.3533026125634625  0.3955999994200000
  0.2058371735273958  0.3517665118565371  0.4644000005800000
  0.1305683564206061  0.3947772669426697  0.3955999994200000
  0.1689708140820754  0.3932411662357443  0.4644000005800000
  0.0937019969726978  0.4362519213199824  0.3955999994200000
  0.1321044546341671  0.4347158206130570  0.4644000005800000
  0.0568356375264301  0.4777265756972952  0.3955999994200000
  0.0952380951862587  0.4761904749903697  0.4644000005800000
  0.0199692780794690  0.5192012300765023  0.3955999994200000
  0.0583717357399911  0.5176651293676824  0.4644000005800000
  0.5407066052686532  0.0583717369891455  0.3955999994200000
  0.5791090629291752  0.0568356362803256  0.4644000005800000
  0.5038402458207449  0.0998463913664582  0.3955999994200000
  0.5422427034822142  0.0983102906595328  0.4644000005800000
  0.4669738863744772  0.1413210457437709  0.3955999994200000
  0.5053763440343058  0.1397849450368455  0.4644000005800000
  0.4301075269265689  0.1827957001210836  0.3955999994200000
  0.4685099845880382  0.1812595994141582  0.4644000005800000
  0.3932411674796077  0.2242703545002908  0.3955999994200000
  0.4316436251410771  0.2227342537933654  0.4644000005800000
  0.3563748080333402  0.2657450088776036  0.3955999994200000
  0.3947772656948094  0.2642089081706781  0.4644000005800000
  0.3195084485854318  0.3072196632549162  0.3955999994200000
  0.3579109062469011  0.3056835625479908  0.4644000005800000
  0.2826420891401114  0.3486943176341235  0.3955999994200000
  0.3210445467989928  0.3471582169253036  0.4644000005800000
  0.2457757296922031  0.3901689720114361  0.3955999994200000
  0.2841781873536724  0.3886328713045107  0.4644000005800000
  0.2089093702442948  0.4316436263887489  0.3955999994200000
  0.2473118279057641  0.4301075256818235  0.4644000005800000
  0.1720430107989743  0.4731182807679560  0.3955999994200000
  0.2104454684578558  0.4715821800591362  0.4644000005800000
  0.1351766513510660  0.5145929351452688  0.3955999994200000
  0.1735791090125353  0.5130568344383434  0.4644000005800000
  0.0983102919031577  0.5560675895225815  0.3955999994200000
  0.1367127495646271  0.5545314888156562  0.4644000005800000
  0.0614439324568901  0.5975422438998942  0.3955999994200000
  0.0998463901183594  0.5960061431929689  0.4644000005800000
  0.0245775730099290  0.6390168982791015  0.3955999994200000
  0.0629800306713983  0.6374807975721760  0.4644000005800000
  0.6559139785402502  0.0537634420579120  0.3955999994200000
  0.6943164362017195  0.0522273413509866  0.4644000005800000
  0.6190476190923420  0.0952380964352247  0.3955999994200000
  0.6574500767538111  0.0937019957282993  0.4644000005800000
  0.5821812596460743  0.1367127508125374  0.3955999994200000
  0.6205837173075435  0.1351766501056120  0.4644000005800000
  0.5453149001991132  0.1781874051917446  0.3955999994200000
  0.5837173578596352  0.1766513044829247  0.4644000005800000
  0.5084485407528455  0.2196620595690573  0.3955999994200000
  0.5468509984126741  0.2181259588621319  0.4644000005800000
  0.4715821813049371  0.2611367139463700  0.3955999994200000
  0.5099846389664064  0.2596006132394446  0.4644000005800000
  0.4347158218579761  0.3026113683255772  0.3955999994200000
  0.4731182795184982  0.3010752676167573  0.4644000005800000
  0.3978494624117084  0.3440860227028900  0.3955999994200000
  0.4362519200715371  0.3425499219959645  0.4644000005800000
  0.3609831029638002  0.3855606770802026  0.3955999994200000
  0.3993855606252694  0.3840245763732772  0.4644000005800000
  0.3241167435158918  0.4270353314575154  0.3955999994200000
  0.3625192011773611  0.4254992307505900  0.4644000005800000
  0.2872503840705714  0.4685099858367225  0.3955999994200000
  0.3256528417320407  0.4669738851297971  0.4644000005800000
  0.2503840246226631  0.5099846402140352  0.3955999994200000
  0.2887864822841323  0.5084485395071099  0.4644000005800000
  0.2135176651763954  0.5514592945913480  0.3955999994200000
  0.2519201228362241  0.5499231938844226  0.4644000005800000
  0.1766513057294343  0.5929339489705552  0.3955999994200000
  0.2150537633899564  0.5913978482617352  0.4644000005800000
  0.1397849462815260  0.6344086033478679  0.3955999994200000
  0.1781874039429953  0.6328725026409425  0.4644000005800000
  0.1029185868352584  0.6758832577251807  0.3955999994200000
  0.1413210444950870  0.6743471570182552  0.4644000005800000
  0.0660522273882973  0.7173579121043878  0.3955999994200000
  0.1044546850488193  0.7158218113955679  0.4644000005800000
  0.0291858679403889  0.7588325664817005  0.3955999994200000
  0.0675883256018583  0.7572964657747752  0.4644000005800000
  0.7711213518118473  0.0491551471266785  0.3955999994200000
  0.8095238094733165  0.0476190464197530  0.4644000005800000
  0.7342549923655797  0.0906298015039912  0.3955999994200000
  0.7726574500254082  0.0890937007970658  0.4644000005800000
  0.6973886329186184  0.1321044558831984  0.3955999994200000
  0.7357910905791405  0.1305683551743785  0.4644000005800000
  0.6605222734707102  0.1735791102605111  0.3955999994200000
  0.6989247311321793  0.1720430095535857  0.4644000005800000
  0.6236559140244425  0.2150537646378238  0.3955999994200000
  0.6620583716842711  0.2135176639308984  0.4644000005800000
  0.5867895545765343  0.2565284190151365  0.3955999994200000
  0.6251920122380036  0.2549923183082111  0.4644000005800000
  0.5499231951295731  0.2980030733943437  0.3955999994200000
  0.5883256527910424  0.2964669726874183  0.4644000005800000
  0.5130568356833055  0.3394777277716564  0.3955999994200000
  0.5514592933431341  0.3379416270647310  0.4644000005800000
  0.4761904762353971  0.3809523821489691  0.3955999994200000
  0.5145929338968664  0.3794162814420438  0.4644000005800000
  0.4393241167900767  0.4224270365281763  0.3955999994200000
  0.4777265744489581  0.4208909358193564  0.4644000005800000
  0.4024577573421684  0.4639016909054890  0.3955999994200000
  0.4408602150036378  0.4623655901985637  0.4644000005800000
  0.3655913978942601  0.5053763452828017  0.3955999994200000
  0.4039938555557294  0.5038402445758763  0.4644000005800000
  0.3287250384489396  0.5468509996620089  0.3955999994200000
  0.3671274961078210  0.5453148989531891  0.4644000005800000
  0.2918586790010314  0.5883256540393217  0.3955999994200000
  0.3302611366625007  0.5867895533323962  0.4644000005800000
  0.2549923195531230  0.6298003084166344  0.3955999994200000
  0.2933947772145923  0.6282642077097089  0.4644000005800000
  0.2181259601068554  0.6712749627939470  0.3955999994200000
  0.2565284177666841  0.6697388620870217  0.4644000005800000
  0.1812596006598943  0.7127496171731542  0.3955999994200000
  0.2196620583213636  0.7112135164662289  0.4644000005800000
  0.1443932412119860  0.7542242715504670  0.3955999994200000
  0.1827956988734553  0.7526881708435416  0.4644000005800000
  0.1075268817657184  0.7956989259277798  0.3955999994200000
  0.1459293394271876  0.7941628252208544  0.4644000005800000
  0.0706605223187572  0.8371735803069869  0.3955999994200000
  0.1090629799792793  0.8356374795981670  0.4644000005800000
  0.0337941628724896  0.8786482346842996  0.3955999994200000
  0.0721966205323183  0.8771121339773743  0.4644000005800000
  0.8863287250834442  0.0445468521954449  0.3955999994200000
  0.9247311827449135  0.0430107514885195  0.4644000005800000
  0.8494623656371765  0.0860215065727577  0.3955999994200000
  0.8878648232970052  0.0844854058658323  0.4644000005800000
  0.8125960061902155  0.1274961609519648  0.3955999994200000
  0.8509984638507375  0.1259600602431450  0.4644000005800000
  0.7757296467423072  0.1689708153292776  0.3955999994200000
  0.8141321044037765  0.1674347146223522  0.4644000005800000
  0.7388632872960397  0.2104454697065903  0.3955999994200000
  0.7772657449558681  0.2089093689996649  0.4644000005800000
  0.7019969278490784  0.2519201240857975  0.3955999994200000
  0.7403993855096005  0.2503840233769776  0.4644000005800000
  0.6651305684011701  0.2933947784631102  0.3955999994200000
  0.7035330260626393  0.2918586777561847  0.4644000005800000
  0.6282642089549025  0.3348694328404229  0.3955999994200000
  0.6666666666163718  0.3333333321334975  0.4644000005800000
  0.5913978495079414  0.3763440872196301  0.3955999994200000
  0.6298003071684635  0.3748079865108102  0.4644000005800000
  0.5545314900616738  0.4178187415969428  0.3955999994200000
  0.5929339477215023  0.4162826408900174  0.4644000005800000
  0.5176651306137654  0.4592933959742556  0.3955999994200000
  0.5560675882752346  0.4577572952673301  0.4644000005800000
  0.4807987711658571  0.5007680503515682  0.3955999994200000
  0.5192012288273264  0.4992319496446428  0.4644000005800000
  0.4439324117205367  0.5422427047307754  0.3955999994200000
  0.4823348693803653  0.5407066040238500  0.4644000005800000
  0.4070660522726284  0.5837173591080882  0.3955999994200000
  0.4454685099340976  0.5821812584011627  0.4644000005800000
  0.3701996928247200  0.6251920134854009  0.3955999994200000
  0.4086021504861894  0.6236559127784754  0.4644000005800000
  0.3333333333793996  0.6666666678646080  0.3955999994200000
  0.3717357910399217  0.6651305671557881  0.4644000005800000
  0.2964669739314914  0.7081413222419208  0.3955999994200000
  0.3348694315929606  0.7066052215349953  0.4644000005800000
  0.2596006144852236  0.7496159766192334  0.3955999994200000
  0.2980030721450523  0.7480798759123081  0.4644000005800000
  0.2227342550382626  0.7910906309984407  0.3955999994200000
  0.2611367126987847  0.7895545302896209  0.4644000005800000
  0.1858678955903542  0.8325652853757534  0.3955999994200000
  0.2242703532518235  0.8310291846688279  0.4644000005800000
  0.1490015361440866  0.8740399397530662  0.3955999994200000
  0.1874039938039153  0.8725038390461407  0.4644000005800000
  0.1121351766961783  0.9155145941303788  0.3955999994200000
  0.1505376343576476  0.9139784934234534  0.4644000005800000
  0.0752688172492172  0.9569892485095860  0.3955999994200000
  0.1136712749106865  0.9554531478026607  0.4644000005800000
  0.0384024578029496  0.9984639028868988  0.3955999994200000
  0.0768049154627781  0.9969278021799732  0.4644000005800000
  0.9646697389097210  0.0814132116434186  0.3955999994200000
  0.0030721965686022  0.0798771109345987  0.4644000005800000
  0.9278033794618125  0.1228878660207313  0.3955999994200000
  0.9662058371232818  0.1213517653138059  0.4644000005800000
  0.8909370200139042  0.1643625203980441  0.3955999994200000
  0.9293394776753735  0.1628264196911186  0.4644000005800000
  0.8540706605685838  0.2058371747772512  0.3955999994200000
  0.8924731182291059  0.2043010740684313  0.4644000005800000
  0.8172043011206755  0.2473118291545640  0.3955999994200000
  0.8556067587821448  0.2457757284476385  0.4644000005800000
  0.7803379416744077  0.2887864835318766  0.3955999994200000
  0.8187403993342365  0.2872503828249512  0.4644000005800000
  0.7434715822264995  0.3302611379091894  0.3955999994200000
  0.7818740398879688  0.3287250372022639  0.4644000005800000
  0.7066052227795384  0.3717357922883966  0.3955999994200000
  0.7450076804410077  0.3701996915814711  0.4644000005800000
  0.6697388633332707  0.4132104466657093  0.3955999994200000
  0.7081413209930993  0.4116743459587838  0.4644000005800000
  0.6328725038853625  0.4546851010430220  0.3955999994200000
  0.6712749615468317  0.4531490003360966  0.4644000005800000
  0.5960061444384013  0.4961597554222292  0.3955999994200000
  0.6344086020989234  0.4946236547134093  0.4644000005800000
  0.5591397849921338  0.5376344097995419  0.3955999994200000
  0.5975422426519623  0.5360983090926165  0.4644000005800000
  0.5222734255442254  0.5791090641768546  0.3955999994200000
  0.5606758832056947  0.5775729634699293  0.4644000005800000
  0.4854070660989050  0.6205837185560619  0.3955999994200000
  0.5238095237577863  0.6190476178472419  0.4644000005800000
  0.4485407066509967  0.6620583729333746  0.3955999994200000
  0.4869431643124660  0.6605222722264491  0.4644000005800000
  0.4116743472030884  0.7035330273106872  0.3955999994200000
  0.4500768048645576  0.7019969266037619  0.4644000005800000
  0.3748079877568207  0.7450076816880000  0.3955999994200000
  0.4132104454166493  0.7434715809810745  0.4644000005800000
  0.3379416283098596  0.7864823360672072  0.3955999994200000
  0.3763440859713289  0.7849462353602817  0.4644000005800000
  0.3010752688619514  0.8279569904445200  0.3955999994200000
  0.3394777265234206  0.8264208897375944  0.4644000005800000
  0.2642089094156836  0.8694316448218325  0.3955999994200000
  0.3026113670755123  0.8678955441149072  0.4644000005800000
  0.2273425499687226  0.9109062992010398  0.3955999994200000
  0.2657450076292446  0.9093701984922199  0.4644000005800000
  0.1904761905208142  0.9523809535783525  0.3955999994200000
  0.2288786481822835  0.9508448528714271  0.4644000005800000
  0.1536098310745466  0.9938556079556652  0.3955999994200000
  0.1920122887360159  0.9923195072487399  0.4644000005800000
  0.1167434716266383  0.0353302623329779  0.3955999994200000
  0.1551459292881076  0.0337941616260525  0.4644000005800000
  0.9692780338401810  0.2012288798460177  0.3955999994200000
  0.0076804915007029  0.1996927791371978  0.4644000005800000
  0.9324116743922725  0.2427035342233304  0.3955999994200000
  0.9708141320537418  0.2411674335164050  0.4644000005800000
  0.8955453149460048  0.2841781886006431  0.3955999994200000
  0.9339477726058335  0.2826420878937178  0.4644000005800000
  0.8586789554990438  0.3256528429798504  0.3955999994200000
  0.8970814131595658  0.3241167422710305  0.4644000005800000
  0.8218125960511355  0.3671274973571630  0.3955999994200000
  0.8602150537126046  0.3655913966502377  0.4644000005800000
  0.7849462366048677  0.4086021517344757  0.3955999994200000
  0.8233486942646965  0.4070660510275504  0.4644000005800000
  0.7480798771579067  0.4500768061136829  0.3955999994200000
  0.7864823348184288  0.4485407054048631  0.4644000005800000
  0.7112135177099984  0.4915514604909957  0.3955999994200000
  0.7496159753714677  0.4900153597840703  0.4644000005800000
  0.6743471582637307  0.5330261148683084  0.3955999994200000
  0.7127496159252000  0.5314900141613830  0.4644000005800000
  0.6374807988158224  0.5745007692456211  0.3955999994200000
  0.6758832564772916  0.5729646685386957  0.4644000005800000
  0.6006144393705020  0.6159754236248284  0.3955999994200000
  0.6390168970303307  0.6144393229179029  0.4644000005800000
  0.5637480799225936  0.6574500780021409  0.3955999994200000
  0.6021505375840630  0.6559139772952156  0.4644000005800000
  0.5268817204746854  0.6989247323794537  0.3955999994200000
  0.5652841781361546  0.6973886316725283  0.4644000005800000
  0.4900153610293649  0.7403993867586609  0.3955999994200000
  0.5284178186882464  0.7388632860498411  0.4644000005800000
  0.4531490015814566  0.7818740411359736  0.3955999994200000
  0.4915514592429260  0.7803379404290482  0.4644000005800000
  0.4162826421335483  0.8233486955132864  0.3955999994200000
  0.4546850997950176  0.8218125948063610  0.4644000005800000
  0.3794162826882279  0.8648233498924935  0.3955999994200000
  0.4178187403487499  0.8632872491836736  0.4644000005800000
  0.3425499232403196  0.9062980042698063  0.3955999994200000
  0.3809523809017889  0.9047619035628809  0.4644000005800000
  0.3056835637940519  0.9477726586471189  0.3955999994200000
  0.3440860214538806  0.9462365579401936  0.4644000005800000
  0.2688172043461436  0.9892473130244317  0.3955999994200000
  0.3072196620076129  0.9877112123175062  0.4644000005800000
  0.2319508448991826  0.0307219674036389  0.3955999994200000
  0.2703533025597046  0.0291858666948190  0.4644000005800000
  0.9738863287706407  0.3210445480486168  0.3955999994200000
  0.0122887864321101  0.3195084473416914  0.4644000005800000
  0.9370199693227325  0.3625192024259295  0.3955999994200000
  0.9754224269842017  0.3609831017190041  0.4644000005800000
  0.9001536098764648  0.4039938568032423  0.3955999994200000
  0.9385560675379342  0.4024577560963168  0.4644000005800000
  0.8632872504295038  0.4454685111824494  0.3955999994200000
  0.9016897080900258  0.4439324104736296  0.4644000005800000
  0.8264208909832361  0.4869431655597622  0.3955999994200000
  0.8648233486430646  0.4854070648528367  0.4644000005800000
  0.7895545315353278  0.5284178199370749  0.3955999994200000
  0.8279569891967971  0.5268817192301495  0.4644000005800000
  0.7526881720883667  0.5698924743162821  0.3955999994200000
  0.7910906297488887  0.5683563736074622  0.4644000005800000
  0.7158218126420990  0.6113671286935948  0.3955999994200000
  0.7542242703019277  0.6098310279866694  0.4644000005800000
  0.6789554531941907  0.6528417830709076  0.3955999994200000
  0.7173579108556599  0.6513056823639820  0.4644000005800000
  0.6420890937472297  0.6943164374501147  0.3955999994200000
  0.6804915514077516  0.6927803367412948  0.4644000005800000
  0.6052227343009620  0.7357910918274274  0.3955999994200000
  0.6436251919624313  0.7342549911205020  0.4644000005800000
  0.5683563748530536  0.7772657462047401  0.3955999994200000
  0.6067588325145229  0.7757296454978146  0.4644000005800000
  0.5314900154067861  0.8187404005820529  0.3955999994200000
  0.5698924730666146  0.8172042998751274  0.4644000005800000
  0.4946236559598248  0.8602150549612599  0.3955999994200000
  0.5330261136212942  0.8586789542543346  0.4644000005800000
  0.4577572965119166  0.9016897093385727  0.3955999994200000
  0.4961597541733859  0.9001536086316474  0.4644000005800000
  0.4208909370656490  0.9431643637158855  0.3955999994200000
  0.4592933947254775  0.9416282630089600  0.4644000005800000
  0.3840245776186879  0.9846390180950927  0.3955999994200000
  0.4224270352792099  0.9831029173862728  0.4644000005800000
  0.3471582181707795  0.0261136724724053  0.3955999994200000
  0.3855606758322489  0.0245775717654799  0.4644000005800000
  0.9784946237011006  0.4408602162512159  0.3955999994200000
  0.0168970813625700  0.4393241155442905  0.4644000005800000
  0.9416282642548331  0.4823348706285286  0.3955999994200000
  0.9800307219146617  0.4807987699216033  0.4644000005800000
  0.9047619048069248  0.5238095250058413  0.3955999994200000
  0.9431643624683941  0.5222734242989160  0.4644000005800000
  0.8678955453599636  0.5652841793850485  0.3955999994200000
  0.9062980030214329  0.5637480786781232  0.4644000005800000
  0.8310291859136961  0.6067588337623613  0.3955999994200000
  0.8694316435735246  0.6052227330554358  0.4644000005800000
  0.7941628264657877  0.6482334881396740  0.3955999994200000
  0.8325652841272571  0.6466973874327486  0.4644000005800000
  0.7572964670204674  0.6897081425188811  0.3955999994200000
  0.7956989246793487  0.6881720418100612  0.4644000005800000
  0.7204301075725590  0.7311827968961939  0.3955999994200000
  0.7588325652340283  0.7296466961892685  0.4644000005800000
  0.6835637481246507  0.7726574512735067  0.3955999994200000
  0.7219662057861200  0.7711213505665812  0.4644000005800000
  0.6466973886793302  0.8141321056527138  0.3955999994200000
  0.6850998463382116  0.8125960049438939  0.4644000005800000
  0.6098310292314220  0.8556067600300266  0.3955999994200000
  0.6482334868928912  0.8540706593231010  0.4644000005800000
  0.5729646697835136  0.8970814144073392  0.3955999994200000
  0.6113671274449829  0.8955453137004138  0.4644000005800000
  0.5360983103381932  0.9385560687865465  0.3955999994200000
  0.5745007679970746  0.9370199680777266  0.4644000005800000
  0.4992319508902848  0.9800307231638591  0.3955999994200000
  0.5376344085517542  0.9784946224569337  0.4644000005800000
  0.4623655914440173  0.0215053775411718  0.3955999994200000
  0.5007680491038459  0.0199692768342464  0.4644000005800000
  0.9831029186315607  0.5606758844538151  0.3955999994200000
  0.0215053762930300  0.5591397837468896  0.4644000005800000
  0.9462365591852930  0.6021505388311278  0.3955999994200000
  0.9846390168467624  0.6006144381242023  0.4644000005800000
  0.9093701997383320  0.6436251932103350  0.3955999994200000
  0.9477726573988540  0.6420890925015150  0.4644000005800000
  0.8725038402920643  0.6850998475876476  0.3955999994200000
  0.9109062979518929  0.6835637468807222  0.4644000005800000
  0.8356374808441560  0.7265745019649603  0.3955999994200000
  0.8740399385056252  0.7250384012580350  0.4644000005800000
  0.7987711213962477  0.7680491563422731  0.3955999994200000
  0.8371735790577172  0.7665130556353478  0.4644000005800000
  0.7619047619509273  0.8095238107214803  0.3955999994200000
  0.8003072196107559  0.8079877100145548  0.4644000005800000
  0.7250384025030191  0.8509984650987931  0.3955999994200000
  0.7634408601644882  0.8494623643918676  0.4644000005800000
  0.6881720430551106  0.8924731194761056  0.3955999994200000
  0.7265745007165799  0.8909370187691803  0.4644000005800000
  0.6513056836097902  0.9339477738553129  0.3955999994200000
  0.6897081412703123  0.9324116731464930  0.4644000005800000
  0.6144393241618820  0.9754224282326256  0.3955999994200000
  0.6528417818233512  0.9738863275257001  0.4644000005800000
  0.5775729647156143  0.0168970826099383  0.3955999994200000
  0.6159754223754429  0.0153609819030129  0.4644000005800000
  0.9877112135636613  0.6804915526564141  0.3955999994200000
  0.0261136712234899  0.6789554519494887  0.4644000005800000
  0.9508448541157529  0.7219662070337268  0.3955999994200000
  0.9892473117772224  0.7204301063268014  0.4644000005800000
  0.9139784946687920  0.7634408614129341  0.3955999994200000
  0.9523809523293140  0.7619047607041142  0.4644000005800000
  0.8771121352225242  0.8049155157902467  0.3955999994200000
  0.9155145928823529  0.8033794150833213  0.4644000005800000
  0.8402457757746159  0.8463901701675595  0.3955999994200000
  0.8786482334360852  0.8448540694606341  0.4644000005800000
  0.8033794163292955  0.8878648245467666  0.3955999994200000
  0.8417818739881768  0.8863287238379467  0.4644000005800000
  0.7665130568813872  0.9293394789240794  0.3955999994200000
  0.8049155145428565  0.9278033782171540  0.4644000005800000
  0.7296466974334790  0.9708141333013921  0.3955999994200000
  0.7680491550949482  0.9692780325944667  0.4644000005800000
  0.6927803379872113  0.0122887876787048  0.3955999994200000
  0.7311827956470399  0.0107526869717794  0.4644000005800000
  0.9923195084941214  0.8003072208590133  0.3955999994200000
  0.0307219661539499  0.7987711201520877  0.4644000005800000
  0.9554531490462129  0.8417818752363260  0.3955999994200000
  0.9938556067076822  0.8402457745294005  0.4644000005800000
  0.9185867896008927  0.8832565296155332  0.3955999994200000
  0.9569892472607212  0.8817204289086077  0.4644000005800000
  0.8817204301529842  0.9247311839928458  0.3955999994200000
  0.9201228878144536  0.9231950832859205  0.4644000005800000
  0.8448540707050759  0.9662058383701586  0.3955999994200000
  0.8832565283665452  0.9646697376632332  0.4644000005800000
  0.8079877112597555  0.0076804927493657  0.3955999994200000
  0.8463901689202775  0.0061443920405459  0.4644000005800000
  0.9969278034245812  0.9201228890616123  0.3955999994200000
  0.0353302610860505  0.9185867883546869  0.4644000005800000
  0.9600614439776203  0.9615975434408196  0.3955999994200000
  0.9984639016381424  0.9600614427319997  0.4644000005800000
  0.9231950845313526  0.0030721978181322  0.3955999994200000
  0.9615975421928219  0.0015360971112068  0.4644000005800000
  0.9984639016427864  0.0384024589083328  0.5355999994200000
  0.0384024577978974  0.0399385549131646  0.6044000005800000
  0.1182795698454582  0.0430107538395663  0.5355999994200000
  0.1582181260005691  0.0445468498443982  0.6044000005800000
  0.0768049154682192  0.0798771132856455  0.5355999994200000
  0.1167434716233301  0.0814132092904774  0.6044000005800000
  0.0353302610902867  0.1167434727336192  0.5355999994200000
  0.0752688172453976  0.1182795687384510  0.6044000005800000
  0.2380952380481300  0.0476190487707998  0.5355999994200000
  0.2780337942048816  0.0491551447756317  0.6044000005800000
  0.1966205836708909  0.0844854082168790  0.5355999994200000
  0.2365591398260019  0.0860215042217109  0.6044000005800000
  0.1551459292929585  0.1213517676648527  0.5355999994200000
  0.1950844854480694  0.1228878636696845  0.6044000005800000
  0.1136712749140788  0.1582181271109319  0.5355999994200000
  0.1536098310691897  0.1597542231157638  0.6044000005800000
  0.0721966205377870  0.1950844865589056  0.5355999994200000
  0.1121351766928979  0.1966205825637374  0.6044000005800000
  0.0307219661589073  0.2319508460049848  0.5355999994200000
  0.0706605223140182  0.2334869420098166  0.6044000005800000
  0.3579109062514952  0.0522273437001389  0.5355999994200000
  0.3978494624075533  0.0537634397068652  0.6044000005800000
  0.3164362518735627  0.0890937031481125  0.5355999994200000
  0.3563748080286736  0.0906297991529444  0.6044000005800000
  0.2749615974946830  0.1259600625941917  0.5355999994200000
  0.3149001536507412  0.1274961586009181  0.6044000005800000
  0.2334869431183912  0.1628264220421654  0.5355999994200000
  0.2734254992735021  0.1643625180469973  0.6044000005800000
  0.1920122887395115  0.1996927814882446  0.5355999994200000
  0.2319508448955697  0.2012288774949710  0.6044000005800000
  0.1505376343615790  0.2365591409362183  0.5355999994200000
  0.1904761905166900  0.2380952369410501  0.6044000005800000
  0.1090629799843400  0.2734255003822975  0.5355999994200000
  0.1490015361403982  0.2749615963890238  0.6044000005800000
  0.0675883256064075  0.3102918598302711  0.5355999994200000
  0.1075268817615185  0.3118279558351030  0.6044000005800000
  0.0261136712275279  0.3471582192763504  0.5355999994200000
  0.0660522273835860  0.3486943152830767  0.6044000005800000
  0.4777265744541669  0.0568356386313724  0.5355999994200000
  0.5176651306092779  0.0583717346362042  0.6044000005800000
  0.4362519200762345  0.0937019980793461  0.5355999994200000
  0.4761904762313454  0.0952380940841779  0.6044000005800000
  0.3947772656973548  0.1305683575254253  0.5355999994200000
  0.4347158218541064  0.1321044535302571  0.6044000005800000
  0.3533026113210630  0.1674347169733989  0.5355999994200000
  0.3932411674761739  0.1689708129782308  0.6044000005800000
  0.3118279569421832  0.2043010764194781  0.5355999994200000
  0.3517665130972942  0.2058371724243100  0.6044000005800000
  0.2703533025642508  0.2411674358674518  0.5355999994200000
  0.3102918587193618  0.2427035318722837  0.6044000005800000
  0.2288786481870118  0.2780337953135310  0.5355999994200000
  0.2688172043421226  0.2795698913183629  0.6044000005800000
  0.1874039938090793  0.3149001547615047  0.5355999994200000
  0.2273425499641902  0.3164362507663365  0.6044000005800000
  0.1459293394301996  0.3517665142075838  0.5355999994200000
  0.1858678955853106  0.3533026102124158  0.6044000005800000
  0.1044546850539078  0.3886328736555575  0.5355999994200000
  0.1443932412090187  0.3901689696603894  0.6044000005800000
  0.0629800306750281  0.4254992331016367  0.5355999994200000
  0.1029185868301391  0.4270353291064686  0.6044000005800000
  0.0215053762970957  0.4623655925496105  0.5355999994200000
  0.0614439324522066  0.4639016885544423  0.6044000005800000
  0.5975422426568386  0.0614439335626059  0.5355999994200000
  0.6374807988119496  0.0629800295674378  0.6044000005800000
  0.5560675882789062  0.0983102930105796  0.5355999994200000
  0.5960061444340171  0.0998463890154114  0.6044000005800000
  0.5145929339016672  0.1351766524566588  0.5355999994200000
  0.5545314900567782  0.1367127484614906  0.6044000005800000
  0.4731182795237348  0.1720430119046324  0.5355999994200000
  0.5130568356788457  0.1735791079094643  0.6044000005800000
  0.4316436251448550  0.2089093713507117  0.5355999994200000
  0.4715821812999660  0.2104454673555435  0.6044000005800000
  0.3901689707685633  0.2457757307986853  0.5355999994200000
  0.4301075269236742  0.2473118268035172  0.6044000005800000
  0.3486943163896835  0.2826420902447645  0.5355999994200000
  0.3886328725447944  0.2841781862495964  0.6044000005800000
  0.3072196620117510  0.3195084496927382  0.5355999994200000
  0.3471582181668620  0.3210445456975701  0.6044000005800000
  0.2657450076345120  0.3563748091388174  0.5355999994200000
  0.3056835637896230  0.3579109051436492  0.6044000005800000
  0.2242703532565796  0.3932411685867910  0.5355999994200000
  0.2642089094116905  0.3947772645916229  0.6044000005800000
  0.1827956988776999  0.4301075280328703  0.5355999994200000
  0.2227342550328108  0.4316436240377021  0.6044000005800000
  0.1413210445004609  0.4669738874789495  0.5355999994200000
  0.1812596006565190  0.4685099834856757  0.6044000005800000
  0.0998463901225284  0.5038402469269231  0.5355999994200000
  0.1397849462776393  0.5053763429317549  0.6044000005800000
  0.0583717357436487  0.5407066063730023  0.5355999994200000
  0.0983102918997068  0.5422427023797286  0.6044000005800000
  0.0168970813657163  0.5775729658209761  0.5355999994200000
  0.0568356375224678  0.5791090618258079  0.6044000005800000
  0.7173579108595105  0.0660522284938394  0.5355999994200000
  0.7572964670146214  0.0675883244986713  0.6044000005800000
  0.6758832564822713  0.1029185879399186  0.5355999994200000
  0.7158218126383296  0.1044546839466449  0.6044000005800000
  0.6344086021043389  0.1397849473878923  0.5355999994200000
  0.6743471582594499  0.1413210433927242  0.6044000005800000
  0.5929339477254593  0.1766513068339715  0.5355999994200000
  0.6328725038815175  0.1781874028406978  0.6044000005800000
  0.5514592933475269  0.2135176662819452  0.5355999994200000
  0.5913978495026376  0.2150537622867770  0.6044000005800000
  0.5099846389702877  0.2503840257280244  0.5355999994200000
  0.5499231951253987  0.2519201217328562  0.6044000005800000
  0.4685099845923554  0.2872503851759980  0.5355999994200000
  0.5084485407474663  0.2887864811808299  0.6044000005800000
  0.4270353302134756  0.3241167446220772  0.5355999994200000
  0.4669738863685866  0.3256528406269091  0.6044000005800000
  0.3855606758371838  0.3609831040700509  0.5355999994200000
  0.4254992319922947  0.3625192000748828  0.6044000005800000
  0.3440860214583041  0.3978494635161301  0.5355999994200000
  0.3840245776134150  0.3993855595209620  0.6044000005800000
  0.3026113670803717  0.4347158229641038  0.5355999994200000
  0.3425499232354826  0.4362519189689357  0.6044000005800000
  0.2611367127031326  0.4715821824101830  0.5355999994200000
  0.3010752688582435  0.4731182784150148  0.6044000005800000
  0.2196620583252001  0.5084485418581566  0.5355999994200000
  0.2596006144803111  0.5099846378629885  0.6044000005800000
  0.1781874039463205  0.5453149013042359  0.5355999994200000
  0.2181259601014314  0.5468509973090677  0.6044000005800000
  0.1367127495700287  0.5821812607522094  0.5355999994200000
  0.1766513057251396  0.5837173567570414  0.6044000005800000
  0.0952380951911490  0.6190476201982887  0.5355999994200000
  0.1351766513462599  0.6205837162031206  0.6044000005800000
  0.0537634408132165  0.6559139796462624  0.5355999994200000
  0.0937019969683274  0.6574500756510943  0.6044000005800000
  0.0122887864359774  0.6927803390923415  0.5355999994200000
  0.0522273425910884  0.6943164350971734  0.6044000005800000
  0.8371735790621823  0.0706605234250729  0.5355999994200000
  0.8771121352172930  0.0721966194299048  0.6044000005800000
  0.7956989246849433  0.1075268828711521  0.5355999994200000
  0.8356374808400541  0.1090629788759840  0.6044000005800000
  0.7542242703070108  0.1443932423191258  0.5355999994200000
  0.7941628264621217  0.1459293383239577  0.6044000005800000
  0.7127496159281311  0.1812596017652050  0.5355999994200000
  0.7526881720832420  0.1827956977700369  0.6044000005800000
  0.6712749615518393  0.2181259612131787  0.5355999994200000
  0.7112135177069502  0.2196620572180105  0.6044000005800000
  0.6298003071729595  0.2549923206592579  0.5355999994200000
  0.6697388633280705  0.2565284166640898  0.6044000005800000
  0.5883256527950270  0.2918586801072315  0.5355999994200000
  0.6282642089501380  0.2933947761120634  0.6044000005800000
  0.5468509984177881  0.3287250395533107  0.5355999994200000
  0.5867895545728989  0.3302611355581426  0.6044000005800000
  0.5053763440398555  0.3655913990012844  0.5355999994200000
  0.5453149001949664  0.3671274950061162  0.6044000005800000
  0.4639016896609759  0.4024577584473636  0.5355999994200000
  0.5038402458160868  0.4039938544521955  0.6044000005800000
  0.4224270352846841  0.4393241178953373  0.5355999994200000
  0.4623655914397950  0.4408602139001691  0.6044000005800000
  0.3809523809058044  0.4761904773414165  0.5355999994200000
  0.4208909370609153  0.4777265733462484  0.6044000005800000
  0.3394777265278719  0.5130568367893902  0.5355999994200000
  0.3794162826829828  0.5145929327942220  0.6044000005800000
  0.2980030721506329  0.5499231962354694  0.5355999994200000
  0.3379416283057438  0.5514592922403012  0.6044000005800000
  0.2565284177727004  0.5867895556834430  0.5355999994200000
  0.2964669739278114  0.5883256516882749  0.6044000005800000
  0.2150537633938207  0.6236559151295222  0.5355999994200000
  0.2549923195489316  0.6251920111343541  0.6044000005800000
  0.1735791090158882  0.6605222745774959  0.5355999994200000
  0.2135176651726399  0.6620583705823277  0.6044000005800000
  0.1321044546386493  0.6973886340235751  0.5355999994200000
  0.1720430107937602  0.6989247300284069  0.6044000005800000
  0.0906298002607168  0.7342549934715488  0.5355999994200000
  0.1305683564158277  0.7357910894763806  0.6044000005800000
  0.0491551458818371  0.7711213529176281  0.5355999994200000
  0.0890937020369480  0.7726574489224598  0.6044000005800000
  0.0076804915055453  0.8079877123656016  0.5355999994200000
  0.0476190476606562  0.8095238083704335  0.6044000005800000
  0.9569892472664946  0.0752688183563065  0.5355999994200000
  0.9969278034216056  0.0768049143611383  0.6044000005800000
  0.9155145928876149  0.1121351778023857  0.5355999994200000
  0.9554531490427259  0.1136712738072175  0.6044000005800000
  0.8740399385096824  0.1490015372503593  0.5355999994200000
  0.9139784946647934  0.1505376332551912  0.6044000005800000
  0.8325652841324435  0.1858678966964385  0.5355999994200000
  0.8725038402875543  0.1874039927012704  0.6044000005800000
  0.7910906297535637  0.2227342561425177  0.5355999994200000
  0.8310291859096218  0.2242703521492441  0.6044000005800000
  0.7496159753756312  0.2596006155904914  0.5355999994200000
  0.7895545315307422  0.2611367115953233  0.6044000005800000
  0.7081413209967515  0.2964669750365706  0.5355999994200000
  0.7480798771528098  0.2980030710432969  0.6044000005800000
  0.6666666666204598  0.3333333344845443  0.5355999994200000
  0.7066052227755707  0.3348694304893761  0.6044000005800000
  0.6251920122415801  0.3701996939306235  0.5355999994200000
  0.6651305683976383  0.3717357899373498  0.6044000005800000
  0.5837173578636476  0.4070660533785971  0.5355999994200000
  0.6236559140187586  0.4086021493834290  0.6044000005800000
  0.5422427034864086  0.4439324128246763  0.5355999994200000
  0.5821812596424668  0.4454685088314027  0.6044000005800000
  0.5007680491084762  0.4807987722726500  0.5355999994200000
  0.5407066052635872  0.4823348682774819  0.6044000005800000
  0.4592933947295965  0.5176651317187292  0.5355999994200000
  0.4992319508856546  0.5192012277254555  0.6044000005800000
  0.4178187403533047  0.5545314911667029  0.5355999994200000
  0.4577572965084156  0.5560675871715347  0.6044000005800000
  0.3763440859744249  0.5913978506127821  0.5355999994200000
  0.4162826421304832  0.5929339466195085  0.6044000005800000
  0.3348694315964925  0.6282642100607558  0.5355999994200000
  0.3748079877516034  0.6298003060655876  0.6044000005800000
  0.2933947772192534  0.6651305695068349  0.5355999994200000
  0.3333333333753116  0.6666666655135614  0.6044000005800000
  0.2519201228413210  0.7019969289548086  0.5355999994200000
  0.2918586789964320  0.7035330249596405  0.6044000005800000
  0.2104454684624413  0.7388632884008879  0.5355999994200000
  0.2503840246184995  0.7403993844076141  0.6044000005800000
  0.1689708140861495  0.7757296478488614  0.5355999994200000
  0.2089093702412604  0.7772657438536933  0.6044000005800000
  0.1274961597072698  0.8125960072949406  0.5355999994200000
  0.1674347158623808  0.8141321032997726  0.6044000005800000
  0.0860215053293374  0.8494623667429144  0.5355999994200000
  0.1259600614844482  0.8509984627477462  0.6044000005800000
  0.0445468509520984  0.8863287261889936  0.5355999994200000
  0.0844854071072092  0.8878648221938253  0.6044000005800000
  0.0030721965741658  0.9231950856369672  0.5355999994200000
  0.0430107527292768  0.9247311816417991  0.6044000005800000
  0.9938556067114070  0.1536098321796984  0.5355999994200000
  0.0337941628665179  0.1551459281845302  0.6044000005800000
  0.9523809523351152  0.1904761916276720  0.5355999994200000
  0.9923195084902261  0.1920122876325039  0.6044000005800000
  0.9109062979562353  0.2273425510737512  0.5355999994200000
  0.9508448541113464  0.2288786470785831  0.6044000005800000
  0.8694316435783032  0.2642089105217249  0.5355999994200000
  0.9093701997334140  0.2657450065265567  0.6044000005800000
  0.8279569892010640  0.3010752699678041  0.5355999994200000
  0.8678955453561751  0.3026113659726359  0.6044000005800000
  0.7864823348231315  0.3379416294157778  0.5355999994200000
  0.8264208909782426  0.3394777254206096  0.6044000005800000
  0.7450076804442518  0.3748079888618570  0.5355999994200000
  0.7849462365993629  0.3763440848666889  0.6044000005800000
  0.7035330260679600  0.4116743483098306  0.5355999994200000
  0.7434715822230710  0.4132104443146625  0.6044000005800000
  0.6620583716890803  0.4485407077559099  0.5355999994200000
  0.7019969278441913  0.4500768037607417  0.6044000005800000
  0.6205837173111478  0.4854070672038835  0.5355999994200000
  0.6605222734662588  0.4869431632087154  0.6044000005800000
  0.5791090629339088  0.5222734266499628  0.5355999994200000
  0.6190476190890198  0.5238095226547946  0.6044000005800000
  0.5376344085559764  0.5591397860979364  0.5355999994200000
  0.5775729647110874  0.5606758821027683  0.6044000005800000
  0.4961597541770967  0.5960061455440157  0.5355999994200000
  0.5360983103322077  0.5975422415488475  0.6044000005800000
  0.4546850998008049  0.6328725049919892  0.5355999994200000
  0.4946236559559159  0.6344086009968212  0.6044000005800000
  0.4132104454219252  0.6697388644380684  0.5355999994200000
  0.4531490015770361  0.6712749604429004  0.6044000005800000
  0.3717357910439928  0.7066052238860422  0.5355999994200000
  0.4116743471991037  0.7081413198908739  0.6044000005800000
  0.3302611366651131  0.7434715833321214  0.5355999994200000
  0.3701996928218647  0.7450076793369531  0.6044000005800000
  0.2887864822888213  0.7803379427800949  0.5355999994200000
  0.3287250384439322  0.7818740387849269  0.6044000005800000
  0.2473118279099416  0.8172043022261742  0.5355999994200000
  0.2872503840650525  0.8187403982310061  0.6044000005800000
  0.2058371735320091  0.8540706616741479  0.5355999994200000
  0.2457757296871200  0.8556067576789796  0.6044000005800000
  0.1643625191547701  0.8909370211202270  0.5355999994200000
  0.2043010753098810  0.8924731171250589  0.6044000005800000
  0.1228878647768376  0.9278033805682008  0.5355999994200000
  0.1628264209319485  0.9293394765730326  0.6044000005800000
  0.0814132103979579  0.9646697400142800  0.5355999994200000
  0.1213517665530689  0.9662058360191119  0.6044000005800000
  0.0399385560216661  0.0015360994622536  0.5355999994200000
  0.0798771121767771  0.0030721954670855  0.6044000005800000
  0.9892473117809748  0.2688172054529585  0.5355999994200000
  0.0291858679360858  0.2703533014577903  0.6044000005800000
  0.9477726574037358  0.3056835648990376  0.5355999994200000
  0.9877112135588467  0.3072196609038695  0.6044000005800000
  0.9062980030258034  0.3425499243470113  0.5355999994200000
  0.9462365591809142  0.3440860203518432  0.6044000005800000
  0.8648233486469236  0.3794162837930904  0.5355999994200000
  0.9047619048020346  0.3809523797979224  0.6044000005800000
  0.8233486942706320  0.4162826432410642  0.5355999994200000
  0.8632872504257428  0.4178187392458960  0.6044000005800000
  0.7818740398917522  0.4531490026871434  0.5355999994200000
  0.8218125960468631  0.4546850986919753  0.6044000005800000
  0.7403993855138197  0.4900153621351171  0.5355999994200000
  0.7803379416689307  0.4915514581399489  0.6044000005800000
  0.6989247311365806  0.5268817215811962  0.5355999994200000
  0.7388632872916916  0.5284178175860281  0.6044000005800000
  0.6574500767586482  0.5637480810291698  0.5355999994200000
  0.6973886329137591  0.5652841770340018  0.6044000005800000
  0.6159754223797685  0.6006144404752491  0.5355999994200000
  0.6559139785348794  0.6021505364800810  0.6044000005800000
  0.5745007680034766  0.6374807999232228  0.5355999994200000
  0.6144393241585876  0.6390168959280547  0.6044000005800000
  0.5330261136245970  0.6743471593693020  0.5355999994200000
  0.5729646697797079  0.6758832553741339  0.6044000005800000
  0.4915514592457173  0.7112135188153812  0.5355999994200000
  0.5314900154017754  0.7127496148221075  0.6044000005800000
  0.4500768048694254  0.7480798782633548  0.5355999994200000
  0.4900153610245365  0.7496159742681867  0.6044000005800000
  0.4086021504905458  0.7849462377094341  0.5355999994200000
  0.4485407066466039  0.7864823337161604  0.6044000005800000
  0.3671274961126133  0.8218125971574077  0.5355999994200000
  0.4070660522677242  0.8233486931622395  0.6044000005800000
  0.3256528417353743  0.8586789566034869  0.5355999994200000
  0.3655913978914325  0.8602150526102132  0.6044000005800000
  0.2841781873574419  0.8955453160514606  0.5355999994200000
  0.3241167435125527  0.8970814120562924  0.6044000005800000
  0.2427035329785621  0.9324116754975398  0.5355999994200000
  0.2826420891346203  0.9339477715042661  0.6044000005800000
  0.2012288786022703  0.9692780349455135  0.5355999994200000
  0.2411674347573813  0.9708141309503453  0.6044000005800000
  0.1597542242233907  0.0061443943915926  0.5355999994200000
  0.1996927803785016  0.0076804903964245  0.6044000005800000
  0.9846390168512361  0.3840245787243240  0.5355999994200000
  0.0245775730063470  0.3855606747291558  0.6044000005800000
  0.9431643624723564  0.4208909381704032  0.5355999994200000
  0.9831029186284145  0.4224270341771295  0.6044000005800000
  0.9016897080944239  0.4577572976183769  0.5355999994200000
  0.9416282642495348  0.4592933936232088  0.6044000005800000
  0.8602150537171849  0.4946236570644561  0.5355999994200000
  0.9001536098722959  0.4961597530692879  0.6044000005800000
  0.8187403993392524  0.5314900165124298  0.5355999994200000
  0.8586789554943633  0.5330261125172616  0.6044000005800000
  0.7772657449603727  0.5683563759585090  0.5355999994200000
  0.8172043011154836  0.5698924719633408  0.6044000005800000
  0.7357910905840810  0.6052227354064826  0.5355999994200000
  0.7757296467391919  0.6067588314113145  0.6044000005800000
  0.6943164362052011  0.6420890948525618  0.5355999994200000
  0.7342549923603121  0.6436251908573937  0.6044000005800000
  0.6528417818272688  0.6789554543005355  0.5355999994200000
  0.6927803379823797  0.6804915503053673  0.6044000005800000
  0.6113671274500297  0.7158218137466148  0.5355999994200000
  0.6513056836051406  0.7173579097514465  0.6044000005800000
  0.5698924730720972  0.7526881731945884  0.5355999994200000
  0.6098310292272082  0.7542242691994202  0.6044000005800000
  0.5284178186932176  0.7895545326406676  0.5355999994200000
  0.5683563748483286  0.7910906286454995  0.6044000005800000
  0.4869431643152851  0.8264208920886413  0.5355999994200000
  0.5268817204703961  0.8279569880934731  0.6044000005800000
  0.4454685099380460  0.8632872515347204  0.5355999994200000
  0.4854070660931570  0.8648233475395523  0.6044000005800000
  0.4039938555601136  0.9001536109826941  0.5355999994200000
  0.4439324117152245  0.9016897069875260  0.6044000005800000
  0.3625192011812339  0.9370199704287733  0.5355999994200000
  0.4024577573363449  0.9385560664336052  0.6044000005800000
  0.3210445468049422  0.9738863298767471  0.5355999994200000
  0.3609831029600530  0.9754224258815788  0.6044000005800000
  0.2795698924260624  0.0107526893228262  0.5355999994200000
  0.3195084485811734  0.0122887853276580  0.6044000005800000
  0.9800307219198565  0.4992319519956896  0.5355999994200000
  0.0199692780749675  0.5007680480005214  0.6044000005800000
  0.9385560675419242  0.5360983114436633  0.5355999994200000
  0.9784946236970351  0.5376344074484952  0.6044000005800000
  0.8970814131630445  0.5729646708897425  0.5355999994200000
  0.9370199693181552  0.5745007668945743  0.6044000005800000
  0.8556067587867526  0.6098310303377161  0.5355999994200000
  0.8955453149418636  0.6113671263425481  0.6044000005800000
  0.8141321044078730  0.6466973897837953  0.5355999994200000
  0.8540706605629840  0.6482334857886273  0.6044000005800000
  0.7726574500299406  0.6835637492317691  0.5355999994200000
  0.8125960061850513  0.6850998452366008  0.6044000005800000
  0.7311827956527015  0.7204301086778482  0.5355999994200000
  0.7711213518078124  0.7219662046826800  0.6044000005800000
  0.6897081412747690  0.7572964681258219  0.5355999994200000
  0.7296466974298800  0.7588325641306538  0.6044000005800000
  0.6482334868958893  0.7941628275719012  0.5355999994200000
  0.6881720430510002  0.7956989235767329  0.6044000005800000
  0.6067588325195975  0.8310291870198747  0.5355999994200000
  0.6466973886747084  0.8325652830247066  0.6044000005800000
  0.5652841781407177  0.8678955464659539  0.5355999994200000
  0.6052227342958287  0.8694316424707859  0.6044000005800000
  0.5238095237627854  0.9047619059139277  0.5355999994200000
  0.5637480799178963  0.9062980019187594  0.6044000005800000
  0.4823348693855463  0.9416282653600069  0.5355999994200000
  0.5222734255406573  0.9431643613648386  0.6044000005800000
  0.4408602150076139  0.9784946248079804  0.5355999994200000
  0.4807987711627248  0.9800307208128124  0.6044000005800000
  0.3993855606287342  0.0153609842540597  0.5355999994200000
  0.4393241167838451  0.0168970802588915  0.6044000005800000
  0.9754224269884771  0.6144393252670551  0.5355999994200000
  0.0153609831445354  0.6159754212737816  0.6044000005800000
  0.9339477726105447  0.6513056847150289  0.5355999994200000
  0.9738863287656556  0.6528417807198607  0.6044000005800000
  0.8924731182333057  0.6881720441611081  0.5355999994200000
  0.9324116743893638  0.6897081401678344  0.6044000005800000
  0.8509984638553731  0.7250384036090817  0.5355999994200000
  0.8909370200104841  0.7265744996139136  0.6044000005800000
  0.8095238094764935  0.7619047630551610  0.5355999994200000
  0.8494623656325517  0.7634408590618872  0.6044000005800000
  0.7680491551002018  0.7987711225031346  0.5355999994200000
  0.8079877112553127  0.8003072185079664  0.6044000005800000
  0.7265745007213220  0.8356374819492137  0.5355999994200000
  0.7665130568773802  0.8371735779559402  0.6044000005800000
  0.6850998463433896  0.8725038413971875  0.5355999994200000
  0.7250384024985006  0.8740399374020194  0.6044000005800000
  0.6436251919645100  0.9093702008432667  0.5355999994200000
  0.6835637481205681  0.9109062968499930  0.6044000005800000
  0.6021505375882181  0.9462365602912404  0.5355999994200000
  0.6420890937433290  0.9477726562960722  0.6044000005800000
  0.5606758832093384  0.9831029197373194  0.5355999994200000
  0.6006144393653965  0.9846390157440459  0.6044000005800000
  0.5192012288330466  0.0199692791852932  0.5355999994200000
  0.5591397849881575  0.0215053751901251  0.6044000005800000
  0.9708141320580451  0.7296466985403153  0.5355999994200000
  0.0107526882131559  0.7311827945451471  0.6044000005800000
  0.9293394776791654  0.7665130579863945  0.5355999994200000
  0.9692780338342762  0.7680491539912262  0.6044000005800000
  0.8878648233028734  0.8033794174343680  0.5355999994200000
  0.9278033794579845  0.8049155134392000  0.6044000005800000
  0.8463901689239939  0.8402457768804473  0.5355999994200000
  0.8863287250791048  0.8417818728852792  0.6044000005800000
  0.8049155145460614  0.8771121363284210  0.5355999994200000
  0.8448540707011722  0.8786482323332528  0.6044000005800000
  0.7634408601688223  0.9139784957745002  0.5355999994200000
  0.8033794163239333  0.9155145917793320  0.6044000005800000
  0.7219662057908899  0.9508448552224739  0.5355999994200000
  0.7619047619460008  0.9523809512273057  0.6044000005800000
  0.6804915514120101  0.9877112146685531  0.5355999994200000
  0.7204301075671211  0.9892473106733850  0.6044000005800000
  0.6390168970357184  0.0245775741165267  0.5355999994200000
  0.6789554531908293  0.0261136701213586  0.6044000005800000
  0.9662058371266656  0.8448540718116808  0.5355999994200000
  0.0061443932817765  0.8463901678165128  0.6044000005800000
  0.9247311827487332  0.8817204312596546  0.5355999994200000
  0.9646697389054848  0.8832565272644863  0.6044000005800000
  0.8832565283714942  0.9185867907057338  0.5355999994200000
  0.9231950845266050  0.9201228867105655  0.6044000005800000
  0.8417818739926144  0.9554531501518129  0.5355999994200000
  0.8817204301486726  0.9569892461585393  0.6044000005800000
  0.8003072196146819  0.9923195095997865  0.5355999994200000
  0.8402457757697929  0.9938556056046185  0.6044000005800000
  0.7588325652374429  0.0291858690458657  0.5355999994200000
  0.7987711213935010  0.0307219650525921  0.6044000005800000
  0.9615975421952861  0.9600614450830464  0.5355999994200000
  0.0015360983503971  0.9615975410878783  0.6044000005800000
  0.9201228878189943  0.9969278045310201  0.5355999994200000
  0.9600614439741052  0.9984639005358519  0.6044000005800000
  0.8786482334401147  0.0337941639770993  0.5355999994200000
  0.9185867895952256  0.0353302599819311  0.6044000005800000
