1302
Lattice="51.89513680529178 0.0 0.0 -25.947568402645885 44.94250680625151 0.0 0.0 0.0 80.0" Properties=species:S:1:pos:R:3 pbc="T T T"
Te     -20.92544779      43.00951428       7.52726191
Te     -17.81652255      44.66638089       7.52726191
Te     -17.93609660      41.14553934       7.52726191
Te     -14.82717135      42.80240595       7.52726191
Te     -11.71824610      44.45927256       7.52726191
Te     -18.05567064      37.62469779       7.52726191
Te     -14.94674540      39.28156441       7.52726191
Te     -11.83782015      40.93843102       7.52726191
Te      -8.72889490      42.59529763       7.52726191
Te      -5.61996966      44.25216424       7.52726191
Te     -15.06631944      35.76072286       7.52726191
Te     -11.95739420      37.41758947       7.52726191
Te      -8.84846895      39.07445608       7.52726191
Te      -5.73954371      40.73132269       7.52726191
Te      -2.63061846      42.38818930       7.52726191
Te       0.47830679      44.04505591       7.52726191
Te     -15.18589349      32.23988131       7.52726191
Te     -12.07696825      33.89674792       7.52726191
Te      -8.96804300      35.55361453       7.52726191
Te      -5.85911775      37.21048114       7.52726191
Te      -2.75019251      38.86734775       7.52726191
Te       0.35873274      40.52421436       7.52726191
Te       3.46765799      42.18108097       7.52726191
Te       6.57658323      43.83794758       7.52726191
Te     -12.19654230      30.37590637       7.52726191
Te      -9.08761705      32.03277299       7.52726191
Te      -5.97869180      33.68963960       7.52726191
Te      -2.86976656      35.34650621       7.52726191
Te       0.23915869      37.00337282       7.52726191
Te       3.34808394      38.66023943       7.52726191
Te       6.45700918      40.31710604       7.52726191
Te       9.56593443      41.97397265       7.52726191
Te      12.67485968      43.63083926       7.52726191
Te     -12.31611634      26.85506483       7.52726191
Te      -9.20719110      28.51193144       7.52726191
Te      -6.09826585      30.16879805       7.52726191
Te      -2.98934060      31.82566466       7.52726191
Te       0.11958464      33.48253127       7.52726191
Te       3.22850989      35.13939788       7.52726191
Te       6.33743514      36.79626449       7.52726191
Te       9.44636038      38.45313110       7.52726191
Te      12.55528563      40.10999771       7.52726191
Te      15.66421087      41.76686432       7.52726191
Te      18.77313612      43.42373093       7.52726191
Te      -9.32676514      24.99108989       7.52726191
Te      -6.21783990      26.64795650       7.52726191
Te      -3.10891465      28.30482311       7.52726191
Te       0.00001060      29.96168972       7.52726191
Te       3.10893584      31.61855633       7.52726191
Te       6.21786109      33.27542294       7.52726191
Te       9.32678633      34.93228955       7.52726191
Te      12.43571158      36.58915616       7.52726191
Te      15.54463683      38.24602277       7.52726191
Te      18.65356207      39.90288938       7.52726191
Te      21.76248732      41.55975599       7.52726191
Te      24.87141257      43.21662261       7.52726191
Te      -9.44633919      21.47024834       7.52726191
Te      -6.33741395      23.12711495       7.52726191
Te      -3.22848870      24.78398156       7.52726191
Te      -0.11956345      26.44084817       7.52726191
Te       2.98936179      28.09771479       7.52726191
Te       6.09828704      29.75458140       7.52726191
Te       9.20721229      31.41144801       7.52726191
Te      12.31613753      33.06831462       7.52726191
Te      15.42506278      34.72518123       7.52726191
Te      18.53398803      36.38204784       7.52726191
Te      21.64291327      38.03891445       7.52726191
Te      24.75183852      39.69578106       7.52726191
Te      27.86076377      41.35264767       7.52726191
Te      -6.45698799      19.60627341       7.52726191
Te      -3.34806275      21.26314002       7.52726191
Te      -0.23913750      22.92000663       7.52726191
Te       2.86978775      24.57687324       7.52726191
Te       5.97871299      26.23373985       7.52726191
Te       9.08763824      27.89060646       7.52726191
Te      12.19656348      29.54747307       7.52726191
Te      15.30548873      31.20433968       7.52726191
Te      18.41441398      32.86120629       7.52726191
Te      21.52333922      34.51807290       7.52726191
Te      24.63226447      36.17493951       7.52726191
Te      27.74118972      37.83180612       7.52726191
Te     -21.04502184      39.48867273       7.52726191
Te      -6.57656204      16.08543186       7.52726191
Te      -3.46763680      17.74229847       7.52726191
Te      -0.35871155      19.39916508       7.52726191
Te       2.75021370      21.05603169       7.52726191
Te       5.85913894      22.71289830       7.52726191
Te       8.96806419      24.36976491       7.52726191
Te      12.07698944      26.02663152       7.52726191
Te      15.18591468      27.68349813       7.52726191
Te      18.29483993      29.34036474       7.52726191
Te      21.40376518      30.99723135       7.52726191
Te      24.51269042      32.65409796       7.52726191
Te      27.62161567      34.31096457       7.52726191
Te      30.73054092      35.96783118       7.52726191
Te      -3.58721084      14.22145692       7.52726191
Te      -0.47828560      15.87832353       7.52726191
Te       2.63063965      17.53519014       7.52726191
Te       5.73956490      19.19205675       7.52726191
Te       8.84849014      20.84892337       7.52726191
Te      11.95741539      22.50578997       7.52726191
Te      15.06634063      24.16265659       7.52726191
Te      18.17526588      25.81952320       7.52726191
Te      21.28419113      27.47638981       7.52726191
Te      24.39311637      29.13325642       7.52726191
Te      27.50204162      30.79012303       7.52726191
Te      30.61096687      32.44698964       7.52726191
Te     -18.17524469      34.10385625       7.52726191
Te      -3.70678489      10.70061538       7.52726191
Te      -0.59785964      12.35748199       7.52726191
Te       2.51106560      14.01434860       7.52726191
Te       5.61999085      15.67121521       7.52726191
Te       8.72891609      17.32808182       7.52726191
Te      11.83784134      18.98494843       7.52726191
Te      14.94676659      20.64181504       7.52726191
Te      18.05569183      22.29868165       7.52726191
Te      21.16461708      23.95554826       7.52726191
Te      24.27354233      25.61241487       7.52726191
Te      27.38246757      27.26928148       7.52726191
Te      30.49139282      28.92614809       7.52726191
Te      33.60031807      30.58301470       7.52726191
Te      -0.71743369       8.83664044       7.52726191
Te       2.39149155      10.49350705       7.52726191
Te       5.50041680      12.15037366       7.52726191
Te       8.60934205      13.80724027       7.52726191
Te      11.71826729      15.46410688       7.52726191
Te      14.82719254      17.12097349       7.52726191
Te      17.93611779      18.77784010       7.52726191
Te      21.04504303      20.43470671       7.52726191
Te      24.15396828      22.09157332       7.52726191
Te      27.26289353      23.74843993       7.52726191
Te      30.37181877      25.40530654       7.52726191
Te      33.48074402      27.06217315       7.52726191
Te     -15.30546754      28.71903976       7.52726191
Te      -0.83700774       5.31579889       7.52726191
Te       2.27191751       6.97266550       7.52726191
Te       5.38084275       8.62953211       7.52726191
Te       8.48976800      10.28639872       7.52726191
Te      11.59869325      11.94326533       7.52726191
Te      14.70761849      13.60013194       7.52726191
Te      17.81654374      15.25699855       7.52726191
Te      20.92546898      16.91386517       7.52726191
Te      24.03439423      18.57073178       7.52726191
Te      27.14331948      20.22759839       7.52726191
Te      30.25224472      21.88446500       7.52726191
Te      33.36116997      23.54133161       7.52726191
Te      36.47009522      25.19819822       7.52726191
Te       2.15234346       3.45182396       7.52726191
Te       5.26126870       5.10869057       7.52726191
Te       8.37019395       6.76555718       7.52726191
Te      11.47911920       8.42242379       7.52726191
Te      14.58804444      10.07929040       7.52726191
Te      17.69696969      11.73615701       7.52726191
Te      20.80589494      13.39302362       7.52726191
Te      23.91482018      15.04989023       7.52726191
Te      27.02374543      16.70675684       7.52726191
Te      30.13267068      18.36362345       7.52726191
Te      33.24159592      20.02049006       7.52726191
Te      36.35052117      21.67735667       7.52726191
Te     -12.43569039      23.33422328       7.52726191
Te       5.14169466       1.58784902       7.52726191
Te       8.25061990       3.24471563       7.52726191
Te      11.35954515       4.90158224       7.52726191
Te      14.46847040       6.55844885       7.52726191
Te      17.57739564       8.21531546       7.52726191
Te      20.68632089       9.87218207       7.52726191
Te      23.79524613      11.52904868       7.52726191
Te      26.90417138      13.18591529       7.52726191
Te      30.01309663      14.84278190       7.52726191
Te      33.12202187      16.49964851       7.52726191
Te      36.23094712      18.15651512       7.52726191
Te      39.33987237      19.81338173       7.52726191
Te      11.23997110       1.38074069       7.52726191
Te      14.34889635       3.03760730       7.52726191
Te      17.45782159       4.69447391       7.52726191
Te      20.56674684       6.35134052       7.52726191
Te      23.67567209       8.00820713       7.52726191
Te      26.78459733       9.66507375       7.52726191
Te      29.89352258      11.32194035       7.52726191
Te      33.00244783      12.97880697       7.52726191
Te      36.11137307      14.63567358       7.52726191
Te      39.22029832      16.29254019       7.52726191
Te      -9.56591324      17.94940680       7.52726191
Te      17.33824755       1.17363237       7.52726191
Te      20.44717279       2.83049898       7.52726191
Te      23.55609804       4.48736559       7.52726191
Te      26.66502329       6.14423220       7.52726191
Te      29.77394853       7.80109881       7.52726191
Te      32.88287378       9.45796542       7.52726191
Te      35.99179902      11.11483203       7.52726191
Te      39.10072427      12.77169864       7.52726191
Te      42.20964952      14.42856525       7.52726191
Te      23.43652399       0.96652404       7.52726191
Te      26.54544924       2.62339065       7.52726191
Te      29.65437448       4.28025726       7.52726191
Te      32.76329973       5.93712387       7.52726191
Te      35.87222498       7.59399048       7.52726191
Te      38.98115022       9.25085709       7.52726191
Te      42.09007547      10.90772370       7.52726191
Te      -6.69613609      12.56459031       7.52726191
Te      29.53480044       0.75941571       7.52726191
Te      32.64372568       2.41628232       7.52726191
Te      35.75265093       4.07314893       7.52726191
Te      38.86157618       5.73001555       7.52726191
Te      41.97050142       7.38688216       7.52726191
Te      45.07942667       9.04374877       7.52726191
Te      35.63307688       0.55230739       7.52726191
Te      38.74200213       2.20917400       7.52726191
Te      41.85092737       3.86604061       7.52726191
Te      44.95985262       5.52290722       7.52726191
Te      -3.82635894       7.17977383       7.52726191
Te      41.73135333       0.34519906       7.52726191
Te      44.84027857       2.00206567       7.52726191
Te      47.94920382       3.65893228       7.52726191
Te      47.82962977       0.13809073       7.52726191
Te      -0.95658179       1.79495735       7.52726191
Te     -23.91479899      44.87348922       7.52726191
Te     -20.92545940      43.00949604      11.15170051
Te     -17.81653415      44.66636265      11.15170051
Te     -17.93610820      41.14552111      11.15170051
Te     -14.82718295      42.80238772      11.15170051
Te     -11.71825771      44.45925433      11.15170051
Te     -18.05568225      37.62467956      11.15170051
Te     -14.94675700      39.28154617      11.15170051
Te     -11.83783175      40.93841278      11.15170051
Te      -8.72890651      42.59527939      11.15170051
Te      -5.61998126      44.25214600      11.15170051
Te     -15.06633105      35.76070462      11.15170051
Te     -11.95740580      37.41757123      11.15170051
Te      -8.84848055      39.07443784      11.15170051
Te      -5.73955531      40.73130445      11.15170051
Te      -2.63063006      42.38817106      11.15170051
Te       0.47829518      44.04503767      11.15170051
Te     -15.18590510      32.23986307      11.15170051
Te     -12.07697985      33.89672969      11.15170051
Te      -8.96805460      35.55359629      11.15170051
Te      -5.85912936      37.21046291      11.15170051
Te      -2.75020411      38.86732952      11.15170051
Te       0.35872114      40.52419613      11.15170051
Te       3.46764638      42.18106274      11.15170051
Te       6.57657163      43.83792935      11.15170051
Te     -12.19655390      30.37588814      11.15170051
Te      -9.08762865      32.03275475      11.15170051
Te      -5.97870340      33.68962136      11.15170051
Te      -2.86977816      35.34648797      11.15170051
Te       0.23914709      37.00335458      11.15170051
Te       3.34807233      38.66022119      11.15170051
Te       6.45699758      40.31708780      11.15170051
Te       9.56592283      41.97395441      11.15170051
Te      12.67484807      43.63082102      11.15170051
Te     -12.31612795      26.85504659      11.15170051
Te      -9.20720270      28.51191320      11.15170051
Te      -6.09827745      30.16877981      11.15170051
Te      -2.98935221      31.82564642      11.15170051
Te       0.11957304      33.48251303      11.15170051
Te       3.22849829      35.13937964      11.15170051
Te       6.33742353      36.79624625      11.15170051
Te       9.44634878      38.45311286      11.15170051
Te      12.55527403      40.10997947      11.15170051
Te      15.66419927      41.76684608      11.15170051
Te      18.77312452      43.42371269      11.15170051
Te      -9.32677675      24.99107165      11.15170051
Te      -6.21785150      26.64793826      11.15170051
Te      -3.10892625      28.30480487      11.15170051
Te      -0.00000101      29.96167149      11.15170051
Te       3.10892424      31.61853810      11.15170051
Te       6.21784949      33.27540471      11.15170051
Te       9.32677473      34.93227132      11.15170051
Te      12.43569998      36.58913793      11.15170051
Te      15.54462522      38.24600454      11.15170051
Te      18.65355047      39.90287115      11.15170051
Te      21.76247572      41.55973776      11.15170051
Te      24.87140096      43.21660437      11.15170051
Te      -9.44635079      21.47023011      11.15170051
Te      -6.33742555      23.12709672      11.15170051
Te      -3.22850030      24.78396333      11.15170051
Te      -0.11957506      26.44082994      11.15170051
Te       2.98935019      28.09769655      11.15170051
Te       6.09827544      29.75456316      11.15170051
Te       9.20720068      31.41142977      11.15170051
Te      12.31612593      33.06829638      11.15170051
Te      15.42505118      34.72516299      11.15170051
Te      18.53397642      36.38202960      11.15170051
Te      21.64290167      38.03889621      11.15170051
Te      24.75182692      39.69576282      11.15170051
Te      27.86075216      41.35262943      11.15170051
Te      -6.45699960      19.60625517      11.15170051
Te      -3.34807435      21.26312178      11.15170051
Te      -0.23914910      22.91998839      11.15170051
Te       2.86977614      24.57685500      11.15170051
Te       5.97870139      26.23372161      11.15170051
Te       9.08762664      27.89058822      11.15170051
Te      12.19655188      29.54745483      11.15170051
Te      15.30547713      31.20432144      11.15170051
Te      18.41440238      32.86118805      11.15170051
Te      21.52332762      34.51805466      11.15170051
Te      24.63225287      36.17492127      11.15170051
Te      27.74117811      37.83178788      11.15170051
Te     -21.04503344      39.48865449      11.15170051
Te      -6.57657364      16.08541362      11.15170051
Te      -3.46764840      17.74228023      11.15170051
Te      -0.35872315      19.39914684      11.15170051
Te       2.75020209      21.05601345      11.15170051
Te       5.85912734      22.71288007      11.15170051
Te       8.96805259      24.36974667      11.15170051
Te      12.07697783      26.02661329      11.15170051
Te      15.18590308      27.68347990      11.15170051
Te      18.29482833      29.34034651      11.15170051
Te      21.40375357      30.99721312      11.15170051
Te      24.51267882      32.65407973      11.15170051
Te      27.62160407      34.31094634      11.15170051
Te      30.73052931      35.96781295      11.15170051
Te      -3.58722245      14.22143869      11.15170051
Te      -0.47829720      15.87830530      11.15170051
Te       2.63062805      17.53517191      11.15170051
Te       5.73955329      19.19203852      11.15170051
Te       8.84847854      20.84890513      11.15170051
Te      11.95740379      22.50577174      11.15170051
Te      15.06632903      24.16263835      11.15170051
Te      18.17525428      25.81950496      11.15170051
Te      21.28417953      27.47637157      11.15170051
Te      24.39310477      29.13323818      11.15170051
Te      27.50203002      30.79010479      11.15170051
Te      30.61095526      32.44697140      11.15170051
Te     -18.17525629      34.10383801      11.15170051
Te      -3.70679649      10.70059714      11.15170051
Te      -0.59787125      12.35746375      11.15170051
Te       2.51105400      14.01433036      11.15170051
Te       5.61997925      15.67119697      11.15170051
Te       8.72890449      17.32806358      11.15170051
Te      11.83782974      18.98493019      11.15170051
Te      14.94675498      20.64179680      11.15170051
Te      18.05568023      22.29866341      11.15170051
Te      21.16460548      23.95553002      11.15170051
Te      24.27353072      25.61239663      11.15170051
Te      27.38245597      27.26926324      11.15170051
Te      30.49138122      28.92612985      11.15170051
Te      33.60030646      30.58299646      11.15170051
Te      -0.71744529       8.83662220      11.15170051
Te       2.39147995      10.49348881      11.15170051
Te       5.50040520      12.15035542      11.15170051
Te       8.60933044      13.80722203      11.15170051
Te      11.71825569      15.46408864      11.15170051
Te      14.82718094      17.12095525      11.15170051
Te      17.93610618      18.77782187      11.15170051
Te      21.04503143      20.43468848      11.15170051
Te      24.15395668      22.09155509      11.15170051
Te      27.26288192      23.74842170      11.15170051
Te      30.37180717      25.40528831      11.15170051
Te      33.48073242      27.06215492      11.15170051
Te     -15.30547914      28.71902153      11.15170051
Te      -0.83701934       5.31578066      11.15170051
Te       2.27190590       6.97264727      11.15170051
Te       5.38083115       8.62951388      11.15170051
Te       8.48975640      10.28638049      11.15170051
Te      11.59868164      11.94324710      11.15170051
Te      14.70760689      13.60011371      11.15170051
Te      17.81653214      15.25698032      11.15170051
Te      20.92545738      16.91384693      11.15170051
Te      24.03438263      18.57071354      11.15170051
Te      27.14330787      20.22758015      11.15170051
Te      30.25223312      21.88444676      11.15170051
Te      33.36115837      23.54131337      11.15170051
Te      36.47008361      25.19817998      11.15170051
Te       2.15233186       3.45180572      11.15170051
Te       5.26125710       5.10867233      11.15170051
Te       8.37018235       6.76553894      11.15170051
Te      11.47910759       8.42240555      11.15170051
Te      14.58803284      10.07927216      11.15170051
Te      17.69695809      11.73613877      11.15170051
Te      20.80588333      13.39300538      11.15170051
Te      23.91480858      15.04987199      11.15170051
Te      27.02373383      16.70673860      11.15170051
Te      30.13265907      18.36360521      11.15170051
Te      33.24158432      20.02047182      11.15170051
Te      36.35050957      21.67733843      11.15170051
Te     -12.43570199      23.33420504      11.15170051
Te       5.14168305       1.58783078      11.15170051
Te       8.25060830       3.24469739      11.15170051
Te      11.35953355       4.90156400      11.15170051
Te      14.46845879       6.55843061      11.15170051
Te      17.57738404       8.21529722      11.15170051
Te      20.68630929       9.87216383      11.15170051
Te      23.79523453      11.52903045      11.15170051
Te      26.90415978      13.18589705      11.15170051
Te      30.01308502      14.84276367      11.15170051
Te      33.12201027      16.49963028      11.15170051
Te      36.23093552      18.15649689      11.15170051
Te      39.33986076      19.81336350      11.15170051
Te      11.23995950       1.38072246      11.15170051
Te      14.34888474       3.03758907      11.15170051
Te      17.45780999       4.69445568      11.15170051
Te      20.56673524       6.35132229      11.15170051
Te      23.67566048       8.00818890      11.15170051
Te      26.78458573       9.66505551      11.15170051
Te      29.89351098      11.32192212      11.15170051
Te      33.00243622      12.97878873      11.15170051
Te      36.11136147      14.63565534      11.15170051
Te      39.22028672      16.29252195      11.15170051
Te      -9.56592484      17.94938856      11.15170051
Te      17.33823594       1.17361413      11.15170051
Te      20.44716119       2.83048074      11.15170051
Te      23.55608644       4.48734735      11.15170051
Te      26.66501168       6.14421396      11.15170051
Te      29.77393693       7.80108057      11.15170051
Te      32.88286218       9.45794718      11.15170051
Te      35.99178742      11.11481379      11.15170051
Te      39.10071267      12.77168040      11.15170051
Te      42.20963791      14.42854701      11.15170051
Te      23.43651239       0.96650580      11.15170051
Te      26.54543764       2.62337241      11.15170051
Te      29.65436288       4.28023902      11.15170051
Te      32.76328813       5.93710563      11.15170051
Te      35.87221337       7.59397225      11.15170051
Te      38.98113862       9.25083886      11.15170051
Te      42.09006387      10.90770547      11.15170051
Te      -6.69614769      12.56457208      11.15170051
Te      29.53478883       0.75939748      11.15170051
Te      32.64371408       2.41626409      11.15170051
Te      35.75263933       4.07313070      11.15170051
Te      38.86156457       5.72999731      11.15170051
Te      41.97048982       7.38686392      11.15170051
Te      45.07941507       9.04373053      11.15170051
Te      35.63306528       0.55228915      11.15170051
Te      38.74199052       2.20915576      11.15170051
Te      41.85091577       3.86602237      11.15170051
Te      44.95984102       5.52288898      11.15170051
Te      -3.82637054       7.17975559      11.15170051
Te      41.73134172       0.34518083      11.15170051
Te      44.84026697       2.00204743      11.15170051
Te      47.94919222       3.65891405      11.15170051
Te      47.82961817       0.13807250      11.15170051
Te      -0.95659339       1.79493911      11.15170051
Te     -23.91481060      44.87347098      11.15170051
Te     -20.80587503      43.35469550      14.53246267
Te     -20.68630098      39.83385395      14.53246267
Te     -17.69694978      41.69782889      14.53246267
Te     -14.70759858      43.56180382      14.53246267
Te     -17.57737573      38.17698734      14.53246267
Te     -14.58802453      40.04096228      14.53246267
Te     -11.59867334      41.90493721      14.53246267
Te      -8.60932214      43.76891215      14.53246267
Te     -17.45780168      34.65614579      14.53246267
Te     -14.46845049      36.52012073      14.53246267
Te     -11.47909929      38.38409567      14.53246267
Te      -8.48974809      40.24807060      14.53246267
Te      -5.50039689      42.11204554      14.53246267
Te      -2.51104569      43.97602048      14.53246267
Te     -14.34887644      32.99927918      14.53246267
Te     -11.35952524      34.86325412      14.53246267
Te      -8.37017404      36.72722906      14.53246267
Te      -5.38082284      38.59120399      14.53246267
Te      -2.39147164      40.45517893      14.53246267
Te       0.59787955      42.31915387      14.53246267
Te       3.58723075      44.18312880      14.53246267
Te     -14.22930239      29.47843764      14.53246267
Te     -11.23995119      31.34241257      14.53246267
Te      -8.25059999      33.20638751      14.53246267
Te      -5.26124880      35.07036245      14.53246267
Te      -2.27189760      36.93433738      14.53246267
Te       0.71745360      38.79831232      14.53246267
Te       3.70680480      40.66228726      14.53246267
Te       6.69615600      42.52626219      14.53246267
Te       9.68550720      44.39023713      14.53246267
Te     -11.12037714      27.82157103      14.53246267
Te      -8.13102595      29.68554596      14.53246267
Te      -5.14167475      31.54952090      14.53246267
Te      -2.15232355      33.41349584      14.53246267
Te       0.83702765      35.27747077      14.53246267
Te       3.82637885      37.14144571      14.53246267
Te       6.81573005      39.00542065      14.53246267
Te       9.80508125      40.86939558      14.53246267
Te      12.79443244      42.73337052      14.53246267
Te      15.78378364      44.59734546      14.53246267
Te     -11.00080310      24.30072948      14.53246267
Te      -8.01145190      26.16470442      14.53246267
Te      -5.02210070      28.02867935      14.53246267
Te      -2.03274950      29.89265429      14.53246267
Te       0.95660170      31.75662923      14.53246267
Te       3.94595290      33.62060416      14.53246267
Te       6.93530409      35.48457910      14.53246267
Te       9.92465529      37.34855404      14.53246267
Te      12.91400649      39.21252897      14.53246267
Te      15.90335769      41.07650391      14.53246267
Te      18.89270889      42.94047885      14.53246267
Te      21.88206009      44.80445378      14.53246267
Te      -7.89187785      22.64386287      14.53246267
Te      -4.90252665      24.50783781      14.53246267
Te      -1.91317545      26.37181274      14.53246267
Te       1.07617575      28.23578768      14.53246267
Te       4.06552694      30.09976262      14.53246267
Te       7.05487814      31.96373755      14.53246267
Te      10.04422934      33.82771249      14.53246267
Te      13.03358054      35.69168743      14.53246267
Te      16.02293174      37.55566236      14.53246267
Te      19.01228294      39.41963730      14.53246267
Te      22.00163414      41.28361224      14.53246267
Te      24.99098533      43.14758717      14.53246267
Te      -7.77230380      19.12302132      14.53246267
Te      -4.78295260      20.98699626      14.53246267
Te      -1.79360140      22.85097119      14.53246267
Te       1.19574979      24.71494613      14.53246267
Te       4.18510099      26.57892107      14.53246267
Te       7.17445219      28.44289601      14.53246267
Te      10.16380339      30.30687094      14.53246267
Te      13.15315459      32.17084588      14.53246267
Te      16.14250579      34.03482082      14.53246267
Te      19.13185698      35.89879575      14.53246267
Te      22.12120818      37.76277069      14.53246267
Te      25.11055938      39.62674563      14.53246267
Te     -23.79522623      41.49072056      14.53246267
Te      -4.66337855      17.46615471      14.53246267
Te      -1.67402736      19.33012965      14.53246267
Te       1.31532384      21.19410458      14.53246267
Te       4.30467504      23.05807952      14.53246267
Te       7.29402624      24.92205446      14.53246267
Te      10.28337744      26.78602939      14.53246267
Te      13.27272864      28.65000433      14.53246267
Te      16.26207983      30.51397927      14.53246267
Te      19.25143103      32.37795421      14.53246267
Te      22.24078223      34.24192914      14.53246267
Te      25.23013343      36.10590408      14.53246267
Te      28.21948463      37.96987902      14.53246267
Te      -4.54380451      13.94531316      14.53246267
Te      -1.55445331      15.80928810      14.53246267
Te       1.43489789      17.67326304      14.53246267
Te       4.42424909      19.53723797      14.53246267
Te       7.41360029      21.40121291      14.53246267
Te      10.40295148      23.26518785      14.53246267
Te      13.39230268      25.12916278      14.53246267
Te      16.38165388      26.99313772      14.53246267
Te      19.37100508      28.85711266      14.53246267
Te      22.36035628      30.72108759      14.53246267
Te      25.34970748      32.58506253      14.53246267
Te      28.33905868      34.44903747      14.53246267
Te     -20.56672693      36.31301240      14.53246267
Te      -1.43487926      12.28844655      14.53246267
Te       1.55447194      14.15242149      14.53246267
Te       4.54382314      16.01639643      14.53246267
Te       7.53317433      17.88037136      14.53246267
Te      10.52252553      19.74434630      14.53246267
Te      13.51187673      21.60832124      14.53246267
Te      16.50122793      23.47229617      14.53246267
Te      19.49057913      25.33627111      14.53246267
Te      22.47993033      27.20024605      14.53246267
Te      25.46928153      29.06422098      14.53246267
Te      28.45863272      30.92819592      14.53246267
Te      31.44798392      32.79217086      14.53246267
Te      -1.31530521       8.76760501      14.53246267
Te       1.67404599      10.63157994      14.53246267
Te       4.66339718      12.49555488      14.53246267
Te       7.65274838      14.35952982      14.53246267
Te      10.64209958      16.22350475      14.53246267
Te      13.63145078      18.08747969      14.53246267
Te      16.62080198      19.95145463      14.53246267
Te      19.61015318      21.81542956      14.53246267
Te      22.59950437      23.67940450      14.53246267
Te      25.58885557      25.54337944      14.53246267
Te      28.57820677      27.40735437      14.53246267
Te      31.56755797      29.27132931      14.53246267
Te     -17.33822764      31.13530425      14.53246267
Te       1.79362003       7.11073840      14.53246267
Te       4.78297123       8.97471333      14.53246267
Te       7.77232243      10.83868827      14.53246267
Te      10.76167363      12.70266321      14.53246267
Te      13.75102483      14.56663814      14.53246267
Te      16.74037603      16.43061308      14.53246267
Te      19.72972722      18.29458802      14.53246267
Te      22.71907842      20.15856295      14.53246267
Te      25.70842962      22.02253789      14.53246267
Te      28.69778082      23.88651283      14.53246267
Te      31.68713202      25.75048776      14.53246267
Te      34.67648322      27.61446270      14.53246267
Te       1.91319408       3.58989685      14.53246267
Te       4.90254528       5.45387179      14.53246267
Te       7.89189648       7.31784672      14.53246267
Te      10.88124768       9.18182166      14.53246267
Te      13.87059887      11.04579660      14.53246267
Te      16.85995007      12.90977153      14.53246267
Te      19.84930127      14.77374647      14.53246267
Te      22.83865247      16.63772141      14.53246267
Te      25.82800367      18.50169634      14.53246267
Te      28.81735487      20.36567128      14.53246267
Te      31.80670607      22.22964622      14.53246267
Te      34.79605726      24.09362115      14.53246267
Te     -14.10972834      25.95759609      14.53246267
Te       5.02211933       1.93303024      14.53246267
Te       8.01147053       3.79700518      14.53246267
Te      11.00082172       5.66098011      14.53246267
Te      13.99017292       7.52495505      14.53246267
Te      16.97952412       9.38892999      14.53246267
Te      19.96887532      11.25290492      14.53246267
Te      22.95822652      13.11687986      14.53246267
Te      25.94757772      14.98085480      14.53246267
Te      28.93692892      16.84482973      14.53246267
Te      31.92628011      18.70880467      14.53246267
Te      34.91563131      20.57277961      14.53246267
Te      37.90498251      22.43675454      14.53246267
Te       8.13104457       0.27616363      14.53246267
Te      11.12039577       2.14013857      14.53246267
Te      14.10974697       4.00411350      14.53246267
Te      17.09909817       5.86808844      14.53246267
Te      20.08844937       7.73206338      14.53246267
Te      23.07780057       9.59603831      14.53246267
Te      26.06715177      11.46001325      14.53246267
Te      29.05650296      13.32398819      14.53246267
Te      32.04585416      15.18796312      14.53246267
Te      35.03520536      17.05193806      14.53246267
Te      38.02455656      18.91591300      14.53246267
Te     -10.88122905      20.77988793      14.53246267
Te      14.22932102       0.48327195      14.53246267
Te      17.21867222       2.34724689      14.53246267
Te      20.20802342       4.21122183      14.53246267
Te      23.19737461       6.07519677      14.53246267
Te      26.18672581       7.93917170      14.53246267
Te      29.17607701       9.80314664      14.53246267
Te      32.16542821      11.66712158      14.53246267
Te      35.15477941      13.53109651      14.53246267
Te      38.14413061      15.39507145      14.53246267
Te      41.13348180      17.25904639      14.53246267
Te      20.32759746       0.69038028      14.53246267
Te      23.31694866       2.55435522      14.53246267
Te      26.30629986       4.41833015      14.53246267
Te      29.29565106       6.28230509      14.53246267
Te      32.28500226       8.14628003      14.53246267
Te      35.27435346      10.01025497      14.53246267
Te      38.26370466      11.87422990      14.53246267
Te      41.25305585      13.73820484      14.53246267
Te      -7.65272975      15.60217978      14.53246267
Te      26.42587391       0.89748861      14.53246267
Te      29.41522511       2.76146354      14.53246267
Te      32.40457631       4.62543848      14.53246267
Te      35.39392750       6.48941342      14.53246267
Te      38.38327870       8.35338835      14.53246267
Te      41.37262990      10.21736329      14.53246267
Te      44.36198110      12.08133823      14.53246267
Te      32.52415035       1.10459693      14.53246267
Te      35.51350155       2.96857187      14.53246267
Te      38.50285275       4.83254681      14.53246267
Te      41.49220395       6.69652174      14.53246267
Te      44.48155515       8.56049668      14.53246267
Te      -4.42423046      10.42447162      14.53246267
Te      38.62242680       1.31170526      14.53246267
Te      41.61177800       3.17568020      14.53246267
Te      44.60112919       5.03965513      14.53246267
Te      47.59048039       6.90363007      14.53246267
Te      44.72070324       1.51881359      14.53246267
Te      47.71005444       3.38278852      14.53246267
Te      -1.19573117       5.24676346      14.53246267
Te      50.81897969       1.72592191      14.53246267
Te       2.03276813       0.06905530      14.53246267
Te     -20.80588537      43.35467652      18.15690127
Te     -20.68631132      39.83383497      18.15690127
Te     -17.69696012      41.69780991      18.15690127
Te     -14.70760892      43.56178484      18.15690127
Te     -17.57738607      38.17696836      18.15690127
Te     -14.58803487      40.04094330      18.15690127
Te     -11.59868367      41.90491823      18.15690127
Te      -8.60933248      43.76889317      18.15690127
Te     -17.45781202      34.65612681      18.15690127
Te     -14.46846083      36.52010175      18.15690127
Te     -11.47910963      38.38407669      18.15690127
Te      -8.48975843      40.24805162      18.15690127
Te      -5.50040723      42.11202656      18.15690127
Te      -2.51105603      43.97600150      18.15690127
Te     -14.34888678      32.99926020      18.15690127
Te     -11.35953558      34.86323514      18.15690127
Te      -8.37018438      36.72721007      18.15690127
Te      -5.38083318      38.59118501      18.15690127
Te      -2.39148198      40.45515995      18.15690127
Te       0.59786922      42.31913489      18.15690127
Te       3.58722041      44.18310982      18.15690127
Te     -14.22931273      29.47841865      18.15690127
Te     -11.23996153      31.34239359      18.15690127
Te      -8.25061033      33.20636853      18.15690127
Te      -5.26125913      35.07034346      18.15690127
Te      -2.27190793      36.93431840      18.15690127
Te       0.71744326      38.79829334      18.15690127
Te       3.70679446      40.66226827      18.15690127
Te       6.69614566      42.52624321      18.15690127
Te       9.68549686      44.39021815      18.15690127
Te     -11.12038748      27.82155204      18.15690127
Te      -8.13103628      29.68552698      18.15690127
Te      -5.14168509      31.54950192      18.15690127
Te      -2.15233389      33.41347685      18.15690127
Te       0.83701731      35.27745179      18.15690127
Te       3.82636851      37.14142673      18.15690127
Te       6.81571971      39.00540166      18.15690127
Te       9.80507091      40.86937660      18.15690127
Te      12.79442210      42.73335154      18.15690127
Te      15.78377330      44.59732647      18.15690127
Te     -11.00081343      24.30071050      18.15690127
Te      -8.01146224      26.16468543      18.15690127
Te      -5.02211104      28.02866037      18.15690127
Te      -2.03275984      29.89263531      18.15690127
Te       0.95659136      31.75661024      18.15690127
Te       3.94594256      33.62058518      18.15690127
Te       6.93529376      35.48456012      18.15690127
Te       9.92464495      37.34853505      18.15690127
Te      12.91399615      39.21250999      18.15690127
Te      15.90334735      41.07648493      18.15690127
Te      18.89269855      42.94045986      18.15690127
Te      21.88204975      44.80443480      18.15690127
Te      -7.89188819      22.64384389      18.15690127
Te      -4.90253699      24.50781882      18.15690127
Te      -1.91318579      26.37179376      18.15690127
Te       1.07616541      28.23576870      18.15690127
Te       4.06551661      30.09974363      18.15690127
Te       7.05486780      31.96371857      18.15690127
Te      10.04421900      33.82769351      18.15690127
Te      13.03357020      35.69166844      18.15690127
Te      16.02292140      37.55564338      18.15690127
Te      19.01227260      39.41961832      18.15690127
Te      22.00162380      41.28359325      18.15690127
Te      24.99097499      43.14756819      18.15690127
Te      -7.77231414      19.12300234      18.15690127
Te      -4.78296294      20.98697728      18.15690127
Te      -1.79361174      22.85095221      18.15690127
Te       1.19573946      24.71492715      18.15690127
Te       4.18509065      26.57890209      18.15690127
Te       7.17444185      28.44287702      18.15690127
Te      10.16379305      30.30685196      18.15690127
Te      13.15314425      32.17082690      18.15690127
Te      16.14249545      34.03480183      18.15690127
Te      19.13184665      35.89877677      18.15690127
Te      22.12119784      37.76275171      18.15690127
Te      25.11054904      39.62672664      18.15690127
Te     -23.79523656      41.49070158      18.15690127
Te      -4.66338889      17.46613573      18.15690127
Te      -1.67403770      19.33011067      18.15690127
Te       1.31531350      21.19408560      18.15690127
Te       4.30466470      23.05806054      18.15690127
Te       7.29401590      24.92203548      18.15690127
Te      10.28336710      26.78601041      18.15690127
Te      13.27271830      28.64998535      18.15690127
Te      16.26206949      30.51396029      18.15690127
Te      19.25142069      32.37793522      18.15690127
Te      22.24077189      34.24191016      18.15690127
Te      25.23012309      36.10588510      18.15690127
Te      28.21947429      37.96986003      18.15690127
Te      -4.54381485      13.94529418      18.15690127
Te      -1.55446365      15.80926912      18.15690127
Te       1.43488755      17.67324406      18.15690127
Te       4.42423875      19.53721899      18.15690127
Te       7.41358995      21.40119393      18.15690127
Te      10.40294115      23.26516887      18.15690127
Te      13.39229235      25.12914380      18.15690127
Te      16.38164354      26.99311874      18.15690127
Te      19.37099474      28.85709368      18.15690127
Te      22.36034594      30.72106861      18.15690127
Te      25.34969714      32.58504355      18.15690127
Te      28.33904834      34.44901849      18.15690127
Te     -20.56673727      36.31299342      18.15690127
Te      -1.43488960      12.28842757      18.15690127
Te       1.55446160      14.15240251      18.15690127
Te       4.54381280      16.01637745      18.15690127
Te       7.53316400      17.88035238      18.15690127
Te      10.52251519      19.74432732      18.15690127
Te      13.51186639      21.60830226      18.15690127
Te      16.50121759      23.47227719      18.15690127
Te      19.49056879      25.33625213      18.15690127
Te      22.47991999      27.20022707      18.15690127
Te      25.46927119      29.06420200      18.15690127
Te      28.45862238      30.92817694      18.15690127
Te      31.44797358      32.79215188      18.15690127
Te      -1.31531555       8.76758603      18.15690127
Te       1.67403565      10.63156096      18.15690127
Te       4.66338685      12.49553590      18.15690127
Te       7.65273804      14.35951083      18.15690127
Te      10.64208924      16.22348577      18.15690127
Te      13.63144044      18.08746071      18.15690127
Te      16.62079164      19.95143565      18.15690127
Te      19.61014284      21.81541058      18.15690127
Te      22.59949404      23.67938552      18.15690127
Te      25.58884523      25.54336046      18.15690127
Te      28.57819643      27.40733539      18.15690127
Te      31.56754763      29.27131033      18.15690127
Te     -17.33823798      31.13528527      18.15690127
Te       1.79360969       7.11071942      18.15690127
Te       4.78296089       8.97469435      18.15690127
Te       7.77231209      10.83866929      18.15690127
Te      10.76166329      12.70264422      18.15690127
Te      13.75101449      14.56661916      18.15690127
Te      16.74036569      16.43059410      18.15690127
Te      19.72971689      18.29456903      18.15690127
Te      22.71906808      20.15854397      18.15690127
Te      25.70841928      22.02251891      18.15690127
Te      28.69777048      23.88649385      18.15690127
Te      31.68712168      25.75046878      18.15690127
Te      34.67647288      27.61444372      18.15690127
Te       1.91318374       3.58987787      18.15690127
Te       4.90253494       5.45385280      18.15690127
Te       7.89188614       7.31782774      18.15690127
Te      10.88123734       9.18180268      18.15690127
Te      13.87058854      11.04577761      18.15690127
Te      16.85993974      12.90975255      18.15690127
Te      19.84929093      14.77372749      18.15690127
Te      22.83864213      16.63770242      18.15690127
Te      25.82799333      18.50167736      18.15690127
Te      28.81734453      20.36565230      18.15690127
Te      31.80669573      22.22962723      18.15690127
Te      34.79604693      24.09360217      18.15690127
Te     -14.10973868      25.95757711      18.15690127
Te       5.02210899       1.93301126      18.15690127
Te       8.01146019       3.79698619      18.15690127
Te      11.00081139       5.66096113      18.15690127
Te      13.99016258       7.52493607      18.15690127
Te      16.97951378       9.38891100      18.15690127
Te      19.96886498      11.25288594      18.15690127
Te      22.95821618      13.11686088      18.15690127
Te      25.94756738      14.98083581      18.15690127
Te      28.93691858      16.84481075      18.15690127
Te      31.92626978      18.70878569      18.15690127
Te      34.91562097      20.57276062      18.15690127
Te      37.90497217      22.43673556      18.15690127
Te       8.13103424       0.27614465      18.15690127
Te      11.12038543       2.14011958      18.15690127
Te      14.10973663       4.00409452      18.15690127
Te      17.09908783       5.86806946      18.15690127
Te      20.08843903       7.73204439      18.15690127
Te      23.07779023       9.59601933      18.15690127
Te      26.06714143      11.45999427      18.15690127
Te      29.05649262      13.32396920      18.15690127
Te      32.04584382      15.18794414      18.15690127
Te      35.03519502      17.05191908      18.15690127
Te      38.02454622      18.91589401      18.15690127
Te     -10.88123939      20.77986895      18.15690127
Te      14.22931068       0.48325297      18.15690127
Te      17.21866188       2.34722791      18.15690127
Te      20.20801308       4.21120285      18.15690127
Te      23.19736428       6.07517778      18.15690127
Te      26.18671547       7.93915272      18.15690127
Te      29.17606667       9.80312766      18.15690127
Te      32.16541787      11.66710259      18.15690127
Te      35.15476907      13.53107753      18.15690127
Te      38.14412027      15.39505247      18.15690127
Te      41.13347147      17.25902740      18.15690127
Te      20.32758713       0.69036130      18.15690127
Te      23.31693832       2.55433624      18.15690127
Te      26.30628952       4.41831117      18.15690127
Te      29.29564072       6.28228611      18.15690127
Te      32.28499192       8.14626105      18.15690127
Te      35.27434312      10.01023598      18.15690127
Te      38.26369432      11.87421092      18.15690127
Te      41.25304551      13.73818586      18.15690127
Te      -7.65274009      15.60216079      18.15690127
Te      26.42586357       0.89746963      18.15690127
Te      29.41521477       2.76144456      18.15690127
Te      32.40456597       4.62541950      18.15690127
Te      35.39391717       6.48939444      18.15690127
Te      38.38326836       8.35336937      18.15690127
Te      41.37261956      10.21734431      18.15690127
Te      44.36197076      12.08131925      18.15690127
Te      32.52414001       1.10457795      18.15690127
Te      35.51349121       2.96855289      18.15690127
Te      38.50284241       4.83252783      18.15690127
Te      41.49219361       6.69650276      18.15690127
Te      44.48154481       8.56047770      18.15690127
Te      -4.42424080      10.42445264      18.15690127
Te      38.62241646       1.31168628      18.15690127
Te      41.61176766       3.17566122      18.15690127
Te      44.60111886       5.03963615      18.15690127
Te      47.59047006       6.90361109      18.15690127
Te      44.72069290       1.51879460      18.15690127
Te      47.71004410       3.38276954      18.15690127
Te      -1.19574150       5.24674448      18.15690127
Te      50.81896935       1.72590293      18.15690127
Te       2.03275779       0.06903632      18.15690127
Mo     -22.00165679      41.28354329       9.34018581
Mo     -18.89273155      42.94040990       9.34018581
Mo     -19.01230560      39.41956836       9.34018581
Mo     -15.90338035      41.07643497       9.34018581
Mo     -12.79445510      42.73330158       9.34018581
Mo     -19.13187964      35.89872681       9.34018581
Mo     -16.02295440      37.55559342       9.34018581
Mo     -12.91402915      39.21246003       9.34018581
Mo      -9.80510390      40.86932664       9.34018581
Mo      -6.69617866      42.52619325       9.34018581
Mo     -16.14252844      34.03475187       9.34018581
Mo     -13.03360320      35.69161848       9.34018581
Mo      -9.92467795      37.34848509       9.34018581
Mo      -6.81575271      39.00535170       9.34018581
Mo      -3.70682746      40.66221831       9.34018581
Mo      -0.59790221      42.31908492       9.34018581
Mo     -16.26210249      30.51391032       9.34018581
Mo     -13.15317725      32.17077693       9.34018581
Mo     -10.04425200      33.82764354       9.34018581
Mo      -6.93532675      35.48451016       9.34018581
Mo      -3.82640151      37.14137677       9.34018581
Mo      -0.71747626      38.79824338       9.34018581
Mo       2.39144899      40.45510999       9.34018581
Mo       5.50037423      42.11197660       9.34018581
Mo     -13.27275129      28.64993539       9.34018581
Mo     -10.16382605      30.30680200       9.34018581
Mo      -7.05490080      31.96366861       9.34018581
Mo      -3.94597555      33.62053522       9.34018581
Mo      -0.83705031      35.27740183       9.34018581
Mo       2.27187494      36.93426844       9.34018581
Mo       5.38080018      38.59113505       9.34018581
Mo       8.48972543      40.24800166       9.34018581
Mo      11.59865068      41.90486827       9.34018581
Mo     -13.39232534      25.12909384       9.34018581
Mo     -10.28340010      26.78596045       9.34018581
Mo      -7.17447485      28.44282706       9.34018581
Mo      -4.06554960      30.09969367       9.34018581
Mo      -0.95662436      31.75656028       9.34018581
Mo       2.15230089      33.41342689       9.34018581
Mo       5.26122614      35.07029350       9.34018581
Mo       8.37015138      36.72716011       9.34018581
Mo      11.47907663      38.38402672       9.34018581
Mo      14.58800188      40.04089333       9.34018581
Mo      17.69692712      41.69775994       9.34018581
Mo     -10.40297414      23.26511890       9.34018581
Mo      -7.29404890      24.92198551       9.34018581
Mo      -4.18512365      26.57885212       9.34018581
Mo      -1.07619840      28.23571874       9.34018581
Mo       2.03272684      29.89258535       9.34018581
Mo       5.14165209      31.54945196       9.34018581
Mo       8.25057733      33.20631857       9.34018581
Mo      11.35950258      34.86318518       9.34018581
Mo      14.46842783      36.52005179       9.34018581
Mo      17.57735307      38.17691840       9.34018581
Mo      20.68627832      39.83378501       9.34018581
Mo      23.79520357      41.49065162       9.34018581
Mo     -10.52254819      19.74427736       9.34018581
Mo      -7.41362295      21.40114397       9.34018581
Mo      -4.30469770      23.05801058       9.34018581
Mo      -1.19577245      24.71487719       9.34018581
Mo       1.91315279      26.37174380       9.34018581
Mo       5.02207804      28.02861041       9.34018581
Mo       8.13100329      29.68547702       9.34018581
Mo      11.23992853      31.34234363       9.34018581
Mo      14.34885378      32.99921024       9.34018581
Mo      17.45777903      34.65607685       9.34018581
Mo      20.56670427      36.31294346       9.34018581
Mo      23.67562952      37.96981007       9.34018581
Mo      26.78455476      39.62667668       9.34018581
Mo      -7.53319699      17.88030242       9.34018581
Mo      -4.42427175      19.53716903       9.34018581
Mo      -1.31534650      21.19403564       9.34018581
Mo       1.79357875      22.85090225       9.34018581
Mo       4.90250399      24.50776886       9.34018581
Mo       8.01142924      26.16463547       9.34018581
Mo      11.12035449      27.82150208       9.34018581
Mo      14.22927973      29.47836869       9.34018581
Mo      17.33820498      31.13523530       9.34018581
Mo      20.44713022      32.79210191       9.34018581
Mo      23.55605547      34.44896852       9.34018581
Mo      26.66498072      36.10583513       9.34018581
Mo      29.77390596      37.76270174       9.34018581
Mo      -7.65277104      14.35946087       9.34018581
Mo      -4.54384579      16.01632748       9.34018581
Mo      -1.43492055      17.67319409       9.34018581
Mo       1.67400470      19.33006070       9.34018581
Mo       4.78292994      20.98692731       9.34018581
Mo       7.89185519      22.64379392       9.34018581
Mo      11.00078044      24.30066054       9.34018581
Mo      14.10970568      25.95752715       9.34018581
Mo      17.21863093      27.61439376       9.34018581
Mo      20.32755618      29.27126037       9.34018581
Mo      23.43648142      30.92812698       9.34018581
Mo      26.54540667      32.58499359       9.34018581
Mo      29.65433192      34.24186020       9.34018581
Mo      -4.66341984      12.49548594       9.34018581
Mo      -1.55449460      14.15235255       9.34018581
Mo       1.55443065      15.80921916       9.34018581
Mo       4.66335590      17.46608577       9.34018581
Mo       7.77228114      19.12295238       9.34018581
Mo      10.88120639      20.77981899       9.34018581
Mo      13.99013164      22.43668560       9.34018581
Mo      17.09905688      24.09355221       9.34018581
Mo      20.20798213      25.75041882       9.34018581
Mo      23.31690738      27.40728543       9.34018581
Mo      26.42583262      29.06415204       9.34018581
Mo      29.53475787      30.72101865       9.34018581
Mo      32.64368311      32.37788526       9.34018581
Mo      -4.78299389       8.97464439       9.34018581
Mo      -1.67406864      10.63151100       9.34018581
Mo       1.43485660      12.28837761       9.34018581
Mo       4.54378185      13.94524422       9.34018581
Mo       7.65270710      15.60211083       9.34018581
Mo      10.76163234      17.25897744       9.34018581
Mo      13.87055759      18.91584405       9.34018581
Mo      16.97948283      20.57271066       9.34018581
Mo      20.08840808      22.22957727       9.34018581
Mo      23.19733333      23.88644388       9.34018581
Mo      26.30625857      25.54331049       9.34018581
Mo      29.41518382      27.20017710       9.34018581
Mo      32.52410907      28.85704371       9.34018581
Mo      -1.79364269       7.11066945       9.34018581
Mo       1.31528255       8.76753606       9.34018581
Mo       4.42420780      10.42440267       9.34018581
Mo       7.53313305      12.08126928       9.34018581
Mo      10.64205829      13.73813589       9.34018581
Mo      13.75098354      15.39500250       9.34018581
Mo      16.85990879      17.05186912       9.34018581
Mo      19.96883403      18.70873573       9.34018581
Mo      23.07775928      20.36560234       9.34018581
Mo      26.18668453      22.02246895       9.34018581
Mo      29.29560977      23.67933556       9.34018581
Mo      32.40453502      25.33620217       9.34018581
Mo      35.51346026      26.99306878       9.34018581
Mo      -1.91321674       3.58982791       9.34018581
Mo       1.19570851       5.24669452       9.34018581
Mo       4.30463375       6.90356113       9.34018581
Mo       7.41355900       8.56042774       9.34018581
Mo      10.52248425      10.21729435       9.34018581
Mo      13.63140949      11.87416096       9.34018581
Mo      16.74033474      13.53102757       9.34018581
Mo      19.84925998      15.18789418       9.34018581
Mo      22.95818523      16.84476079       9.34018581
Mo      26.06711048      18.50162740       9.34018581
Mo      29.17603572      20.15849401       9.34018581
Mo      32.28496097      21.81536062       9.34018581
Mo      35.39388622      23.47222723       9.34018581
Mo       1.07613446       1.72585297       9.34018581
Mo       4.18505970       3.38271958       9.34018581
Mo       7.29398495       5.03958619       9.34018581
Mo      10.40291020       6.69645280       9.34018581
Mo      13.51183544       8.35331941       9.34018581
Mo      16.62076069      10.01018602       9.34018581
Mo      19.72968594      11.66705263       9.34018581
Mo      22.83861118      13.32391924       9.34018581
Mo      25.94753643      14.98078585       9.34018581
Mo      29.05646168      16.63765246       9.34018581
Mo      32.16538692      18.29451907       9.34018581
Mo      35.27431217      19.95138568       9.34018581
Mo      38.38323742      21.60825229       9.34018581
Mo     -21.88208275      44.80438484       9.34018581
Mo       7.17441090       1.51874464       9.34018581
Mo      10.28333615       3.17561125       9.34018581
Mo      13.39226140       4.83247786       9.34018581
Mo      16.50118664       6.48934447       9.34018581
Mo      19.61011189       8.14621108       9.34018581
Mo      22.71903714       9.80307769       9.34018581
Mo      25.82796238      11.45994430       9.34018581
Mo      28.93688763      13.11681092       9.34018581
Mo      32.04581287      14.77367753       9.34018581
Mo      35.15473812      16.43054414       9.34018581
Mo      38.26366337      18.08741075       9.34018581
Mo     -15.78380630      44.59727651       9.34018581
Mo      13.27268735       1.31163632       9.34018581
Mo      16.38161259       2.96850293       9.34018581
Mo      19.49053784       4.62536954       9.34018581
Mo      22.59946309       6.28223615       9.34018581
Mo      25.70838833       7.93910276       9.34018581
Mo      28.81731358       9.59596937       9.34018581
Mo      31.92623883      11.25283598       9.34018581
Mo      35.03516407      12.90970259       9.34018581
Mo      38.14408932      14.56656920       9.34018581
Mo      41.25301457      16.22343581       9.34018581
Mo      -9.68552986      44.39016819       9.34018581
Mo      19.37096379       1.10452799       9.34018581
Mo      22.47988904       2.76139460       9.34018581
Mo      25.58881429       4.41826121       9.34018581
Mo      28.69773953       6.07512782       9.34018581
Mo      31.80666478       7.73199443       9.34018581
Mo      34.91559002       9.38886104       9.34018581
Mo      38.02451527      11.04572765       9.34018581
Mo      41.13344052      12.70259426       9.34018581
Mo      -3.58725341      44.18305986       9.34018581
Mo      25.46924024       0.89741966       9.34018581
Mo      28.57816548       2.55428627       9.34018581
Mo      31.68709073       4.21115288       9.34018581
Mo      34.79601598       5.86801950       9.34018581
Mo      37.90494122       7.52488611       9.34018581
Mo      41.01386647       9.18175272       9.34018581
Mo      44.12279172      10.83861933       9.34018581
Mo       2.51102303      43.97595153       9.34018581
Mo      31.56751668       0.69031134       9.34018581
Mo      34.67644193       2.34717795       9.34018581
Mo      37.78536718       4.00404456       9.34018581
Mo      40.89429242       5.66091117       9.34018581
Mo      44.00321767       7.31777778       9.34018581
Mo       8.60929948      43.76884321       9.34018581
Mo      37.66579313       0.48320301       9.34018581
Mo      40.77471837       2.14006962       9.34018581
Mo      43.88364362       3.79693623       9.34018581
Mo      46.99256887       5.45380284       9.34018581
Mo      14.70757592      43.56173488       9.34018581
Mo      43.76406957       0.27609468       9.34018581
Mo      46.87299482       1.93296130       9.34018581
Mo      20.80585237      43.35462655       9.34018581
Mo      49.86234602       0.06898636       9.34018581
Mo      26.90412881      43.14751823       9.34018581
Mo     -21.76250525      41.55968567      16.34538657
Mo     -21.64293120      38.03884413      16.34538657
Mo     -18.65358000      39.90281906      16.34538657
Mo     -15.66422880      41.76679400      16.34538657
Mo     -18.53400595      36.38197752      16.34538657
Mo     -15.54465476      38.24595245      16.34538657
Mo     -12.55530356      40.10992739      16.34538657
Mo      -9.56595236      41.97390232      16.34538657
Mo     -18.41443191      32.86113597      16.34538657
Mo     -15.42508071      34.72511090      16.34538657
Mo     -12.43572951      36.58908584      16.34538657
Mo      -9.44637831      38.45306078      16.34538657
Mo      -6.45702711      40.31703571      16.34538657
Mo      -3.46767591      42.18101065      16.34538657
Mo     -15.30550666      31.20426936      16.34538657
Mo     -12.31615546      33.06824429      16.34538657
Mo      -9.32680426      34.93221923      16.34538657
Mo      -6.33745306      36.79619417      16.34538657
Mo      -3.34810187      38.66016910      16.34538657
Mo      -0.35875067      40.52414404      16.34538657
Mo       2.63060053      42.38811898      16.34538657
Mo     -15.18593261      27.68342781      16.34538657
Mo     -12.19658141      29.54740275      16.34538657
Mo      -9.20723022      31.41137768      16.34538657
Mo      -6.21787902      33.27535262      16.34538657
Mo      -3.22852782      35.13932756      16.34538657
Mo      -0.23917662      37.00330249      16.34538657
Mo       2.75017458      38.86727743      16.34538657
Mo       5.73952578      40.73125237      16.34538657
Mo       8.72887698      42.59522730      16.34538657
Mo     -12.07700737      26.02656120      16.34538657
Mo      -9.08765617      27.89053614      16.34538657
Mo      -6.09830497      29.75451107      16.34538657
Mo      -3.10895377      31.61848601      16.34538657
Mo      -0.11960257      33.48246095      16.34538657
Mo       2.86974863      35.34643588      16.34538657
Mo       5.85909983      37.21041082      16.34538657
Mo       8.84845102      39.07438576      16.34538657
Mo      11.83780222      40.93836069      16.34538657
Mo      14.82715342      42.80233563      16.34538657
Mo     -11.95743332      22.50571965      16.34538657
Mo      -8.96808212      24.36969459      16.34538657
Mo      -5.97873092      26.23366953      16.34538657
Mo      -2.98937972      28.09764446      16.34538657
Mo      -0.00002852      29.96161940      16.34538657
Mo       2.98932267      31.82559434      16.34538657
Mo       5.97867387      33.68956927      16.34538657
Mo       8.96802507      35.55354421      16.34538657
Mo      11.95737627      37.41751915      16.34538657
Mo      14.94672747      39.28149408      16.34538657
Mo      17.93607867      41.14546902      16.34538657
Mo      20.92542987      43.00944396      16.34538657
Mo      -8.84850807      20.84885304      16.34538657
Mo      -5.85915687      22.71282798      16.34538657
Mo      -2.86980567      24.57680292      16.34538657
Mo       0.11954552      26.44077785      16.34538657
Mo       3.10889672      28.30475279      16.34538657
Mo       6.09824792      30.16872773      16.34538657
Mo       9.08759912      32.03270266      16.34538657
Mo      12.07695032      33.89667760      16.34538657
Mo      15.06630152      35.76065254      16.34538657
Mo      18.05565271      37.62462747      16.34538657
Mo      21.04500391      39.48860241      16.34538657
Mo      24.03435511      41.35257735      16.34538657
Mo      -8.72893402      17.32801150      16.34538657
Mo      -5.73958283      19.19198643      16.34538657
Mo      -2.75023163      21.05596137      16.34538657
Mo       0.23911957      22.91993630      16.34538657
Mo       3.22847077      24.78391124      16.34538657
Mo       6.21782197      26.64788618      16.34538657
Mo       9.20717317      28.51186112      16.34538657
Mo      12.19652437      30.37583605      16.34538657
Mo      15.18587556      32.23981099      16.34538657
Mo      18.17522676      34.10378593      16.34538657
Mo      21.16457796      35.96776086      16.34538657
Mo      24.15392916      37.83173580      16.34538657
Mo      27.14328036      39.69571074      16.34538657
Mo      -5.62000878      15.67114489      16.34538657
Mo      -2.63065758      17.53511982      16.34538657
Mo       0.35869362      19.39909476      16.34538657
Mo       3.34804482      21.26306969      16.34538657
Mo       6.33739602      23.12704463      16.34538657
Mo       9.32674722      24.99101957      16.34538657
Mo      12.31609841      26.85499450      16.34538657
Mo      15.30544961      28.71896944      16.34538657
Mo      18.29480081      30.58294438      16.34538657
Mo      21.28415201      32.44691932      16.34538657
Mo      24.27350321      34.31089425      16.34538657
Mo      27.26285441      36.17486919      16.34538657
Mo      -5.50043473      12.15030334      16.34538657
Mo      -2.51108353      14.01427828      16.34538657
Mo       0.47826767      15.87825321      16.34538657
Mo       3.46761887      17.74222815      16.34538657
Mo       6.45697006      19.60620308      16.34538657
Mo       9.44632126      21.47017802      16.34538657
Mo      12.43567246      23.33415296      16.34538657
Mo      15.42502366      25.19812789      16.34538657
Mo      18.41437486      27.06210283      16.34538657
Mo      21.40372606      28.92607777      16.34538657
Mo      24.39307726      30.79005270      16.34538657
Mo      27.38242845      32.65402764      16.34538657
Mo      30.37177965      34.51800258      16.34538657
Mo      -2.39150948      10.49343673      16.34538657
Mo       0.59784172      12.35741166      16.34538657
Mo       3.58719291      14.22138660      16.34538657
Mo       6.57654411      16.08536154      16.34538657
Mo       9.56589531      17.94933647      16.34538657
Mo      12.55524651      19.81331141      16.34538657
Mo      15.54459771      21.67728635      16.34538657
Mo      18.53394891      23.54126128      16.34538657
Mo      21.52330010      25.40523622      16.34538657
Mo      24.51265130      27.26921116      16.34538657
Mo      27.50200250      29.13318609      16.34538657
Mo      30.49135370      30.99716103      16.34538657
Mo      -2.27193544       6.97259518      16.34538657
Mo       0.71741576       8.83657012      16.34538657
Mo       3.70676696      10.70054505      16.34538657
Mo       6.69611816      12.56451999      16.34538657
Mo       9.68546936      14.42849493      16.34538657
Mo      12.67482056      16.29246986      16.34538657
Mo      15.66417176      18.15644480      16.34538657
Mo      18.65352295      20.02041974      16.34538657
Mo      21.64287415      21.88439467      16.34538657
Mo      24.63222535      23.74836961      16.34538657
Mo      27.62157655      25.61234455      16.34538657
Mo      30.61092775      27.47631948      16.34538657
Mo      33.60027895      29.34029442      16.34538657
Mo       0.83698981       5.31572857      16.34538657
Mo       3.82634101       7.17970351      16.34538657
Mo       6.81569221       9.04367844      16.34538657
Mo       9.80504341      10.90765338      16.34538657
Mo      12.79439461      12.77162832      16.34538657
Mo      15.78374580      14.63560325      16.34538657
Mo      18.77309700      16.49957819      16.34538657
Mo      21.76244820      18.36355313      16.34538657
Mo      24.75179940      20.22752806      16.34538657
Mo      27.74115060      22.09150300      16.34538657
Mo      30.73050180      23.95547794      16.34538657
Mo      33.71985299      25.81945287      16.34538657
Mo       0.95656386       1.79488702      16.34538657
Mo       3.94591506       3.65886196      16.34538657
Mo       6.93526626       5.52283690      16.34538657
Mo       9.92461745       7.38681183      16.34538657
Mo      12.91396865       9.25078677      16.34538657
Mo      15.90331985      11.11476171      16.34538657
Mo      18.89267105      12.97873664      16.34538657
Mo      21.88202225      14.84271158      16.34538657
Mo      24.87137345      16.70668652      16.34538657
Mo      27.86072465      18.57066145      16.34538657
Mo      30.85007584      20.43463639      16.34538657
Mo      33.83942704      22.29861133      16.34538657
Mo      36.82877824      24.16258626      16.34538657
Mo       4.06548911       0.13802041      16.34538657
Mo       7.05484030       2.00199535      16.34538657
Mo      10.04419150       3.86597029      16.34538657
Mo      13.03354270       5.72994522      16.34538657
Mo      16.02289390       7.59392016      16.34538657
Mo      19.01224510       9.45789510      16.34538657
Mo      22.00159630      11.32187003      16.34538657
Mo      24.99094749      13.18584497      16.34538657
Mo      27.98029869      15.04981991      16.34538657
Mo      30.96964989      16.91379484      16.34538657
Mo      33.95900109      18.77776978      16.34538657
Mo      36.94835229      20.64174472      16.34538657
Mo     -18.77315405      43.42366061      16.34538657
Mo      10.16376555       0.34512874      16.34538657
Mo      13.15311675       2.20910368      16.34538657
Mo      16.14246795       4.07307861      16.34538657
Mo      19.13181915       5.93705355      16.34538657
Mo      22.12117034       7.80102849      16.34538657
Mo      25.11052154       9.66500342      16.34538657
Mo      28.09987274      11.52897836      16.34538657
Mo      31.08922394      13.39295330      16.34538657
Mo      34.07857514      15.25692823      16.34538657
Mo      37.06792634      17.12090317      16.34538657
Mo      40.05727754      18.98487811      16.34538657
Mo     -12.67487761      43.63076893      16.34538657
Mo      16.26204200       0.55223707      16.34538657
Mo      19.25139319       2.41621200      16.34538657
Mo      22.24074439       4.28018694      16.34538657
Mo      25.23009559       6.14416188      16.34538657
Mo      28.21944679       8.00813681      16.34538657
Mo      31.20879799       9.87211175      16.34538657
Mo      34.19814919      11.73608669      16.34538657
Mo      37.18750038      13.60006162      16.34538657
Mo      40.17685158      15.46403656      16.34538657
Mo      -6.57660116      43.83787726      16.34538657
Mo      22.36031844       0.75934539      16.34538657
Mo      25.34966964       2.62332033      16.34538657
Mo      28.33902084       4.48729526      16.34538657
Mo      31.32837204       6.35127020      16.34538657
Mo      34.31772323       8.21524514      16.34538657
Mo      37.30707443      10.07922008      16.34538657
Mo      40.29642563      11.94319501      16.34538657
Mo      43.28577683      13.80716995      16.34538657
Mo      -0.47832472      44.04498559      16.34538657
Mo      28.45859489       0.96645372      16.34538657
Mo      31.44794608       2.83042865      16.34538657
Mo      34.43729728       4.69440359      16.34538657
Mo      37.42664848       6.55837853      16.34538657
Mo      40.41599968       8.42235346      16.34538657
Mo      43.40535088      10.28632840      16.34538657
Mo       5.61995173      44.25209391      16.34538657
Mo      34.55687133       1.17356204      16.34538657
Mo      37.54622253       3.03753698      16.34538657
Mo      40.53557373       4.90151192      16.34538657
Mo      43.52492493       6.76548685      16.34538657
Mo      46.51427612       8.62946179      16.34538657
Mo      11.71822817      44.45920224      16.34538657
Mo      40.65514777       1.38067037      16.34538657
Mo      43.64449897       3.24464531      16.34538657
Mo      46.63385017       5.10862024      16.34538657
Mo      17.81650462      44.66631057      16.34538657
Mo      46.75342422       1.58777870      16.34538657
Mo      49.74277542       3.45175363      16.34538657
Mo      23.91478106      44.87341889      16.34538657
Mo     -24.87143050      43.21655228      16.34538657
