Zr S 
 1.0000000000000000
    66.7716403944999968    0.0000000000000000    0.0000000000000000
   -33.3858201992999994   57.8259368340999984    0.0000000000000000
     0.0000000000000000    0.0000000000000000   22.9186134248999984
 Zr  S  
 662 1324
Direct
 -0.0000000047714464  0.0000000038460250  0.3642501878464502
  0.0634441039894679  0.0302114842084113  0.3642501878464502
  0.0332326236271358  0.0634441126068632  0.3642501878464502
  0.0030211432648038  0.0966767410053152  0.3642501878464502
  0.1570996931142117  0.0271903361723456  0.3642501878464502
  0.1268882127518797  0.0604229645707975  0.3642501878464502
  0.0966767323880500  0.0936555929692495  0.3642501878464502
  0.0664652520257180  0.1268882213677014  0.3642501878464502
  0.0362537716642507  0.1601208497678827  0.3642501878464502
  0.0060422913019186  0.1933534781663347  0.3642501878464502
  0.2507552822374580  0.0241691881362799  0.3642501878464502
  0.2205438018751259  0.0574018165347318  0.3642501878464502
  0.1903323215127939  0.0906344449331838  0.3642501878464502
  0.1601208411504619  0.1238670733316357  0.3642501878464502
  0.1299093607874969  0.1570997017318170  0.3642501878464502
  0.0996978804251649  0.1903323301302690  0.3642501878464502
  0.0694864000628329  0.2235649585287209  0.3642501878464502
  0.0392749197005008  0.2567975869271729  0.3642501878464502
  0.0090634393366712  0.2900302153256248  0.3642501878464502
  0.3444108713622018  0.0211480401002142  0.3642501878464502
  0.3141993909998698  0.0543806684986662  0.3642501878464502
  0.2839879106360401  0.0876132968971181  0.3642501878464502
  0.2537764302737081  0.1208459252955700  0.3642501878464502
  0.2235649499113761  0.1540785536940220  0.3642501878464502
  0.1933534695499088  0.1873111820942033  0.3642501878464502
  0.1631419891860791  0.2205438104926552  0.3642501878464502
  0.1329305088237471  0.2537764388911072  0.3642501878464502
  0.1027190284614151  0.2870090672895592  0.3642501878464502
  0.0725075480990830  0.3202416956880111  0.3642501878464502
  0.0422960677361180  0.3534743240881923  0.3642501878464502
  0.0120845873737860  0.3867069524866443  0.3642501878464502
  0.4380664604845834  0.0181268920624192  0.3642501878464502
  0.4078549801231160  0.0513595204626005  0.3642501878464502
  0.3776434997607840  0.0845921488610524  0.3642501878464502
  0.3474320193984520  0.1178247772595044  0.3642501878464502
  0.3172205390346223  0.1510574056579563  0.3642501878464502
  0.2870090586722903  0.1842900340564082  0.3642501878464502
  0.2567975783108229  0.2175226624565895  0.3642501878464502
  0.2265860979484909  0.2507552908550415  0.3642501878464502
  0.1963746175846613  0.2839879192534934  0.3642501878464502
  0.1661631372223292  0.3172205476519454  0.3642501878464502
  0.1359516568599972  0.3504531760503973  0.3642501878464502
  0.1057401764985299  0.3836858044505786  0.3642501878464502
  0.0755286961347002  0.4169184328490306  0.3642501878464502
  0.0453172157723682  0.4501510612474825  0.3642501878464502
  0.0151057354100362  0.4833836896459345  0.3642501878464502
  0.5317220496093272  0.0151057440263535  0.3642501878464502
  0.5015105692478600  0.0483383724265348  0.3642501878464502
  0.4712990888840302  0.0815710008249867  0.3642501878464502
  0.4410876085216983  0.1148036292234387  0.3642501878464502
  0.4108761281593662  0.1480362576218906  0.3642501878464502
  0.3806646477970342  0.1812688860203426  0.3642501878464502
  0.3504531674340691  0.2145015144205238  0.3642501878464502
  0.3202416870717372  0.2477341428189758  0.3642501878464502
  0.2900302067094052  0.2809667712174277  0.3642501878464502
  0.2598187263470731  0.3141993996158797  0.3642501878464502
  0.2296072459832434  0.3474320280143316  0.3642501878464502
  0.1993957656217761  0.3806646564145129  0.3642501878464502
  0.1691842852594441  0.4138972848129649  0.3642501878464502
  0.1389728048971121  0.4471299132114168  0.3642501878464502
  0.1087613245332824  0.4803625416098687  0.3642501878464502
  0.0785498441709504  0.5135951700083208  0.3642501878464502
  0.0483383638094830  0.5468277984085019  0.3642501878464502
  0.0181268834471510  0.5800604268069539  0.3642501878464502
  0.6253776387325735  0.0120845959902878  0.3642501878464502
  0.5951661583702414  0.0453172243887397  0.3642501878464502
  0.5649546780087741  0.0785498527889210  0.3642501878464502
  0.5347431976464422  0.1117824811873730  0.3642501878464502
  0.5045317172826124  0.1450151095858249  0.3642501878464502
  0.4743202369202804  0.1782477379842768  0.3642501878464502
  0.4441087565579484  0.2114803663827288  0.3642501878464502
  0.4138972761964810  0.2447129947829101  0.3642501878464502
  0.3836857958326513  0.2779456231813620  0.3642501878464502
  0.3534743154703194  0.3111782515798140  0.3642501878464502
  0.3232628351079873  0.3444108799782659  0.3642501878464502
  0.2930513547456553  0.3776435083767179  0.3642501878464502
  0.2628398743826903  0.4108761367768992  0.3642501878464502
  0.2326283940203583  0.4441087651753511  0.3642501878464502
  0.2024169136580263  0.4773413935738031  0.3642501878464502
  0.1722054332956942  0.5105740219722550  0.3642501878464502
  0.1419939529333622  0.5438066503707070  0.3642501878464502
  0.1117824725703972  0.5770392787708882  0.3642501878464502
  0.0815709922080652  0.6102719071693401  0.3642501878464502
  0.0513595118457332  0.6435045355677922  0.3642501878464502
  0.0211480314834012  0.6767371639662442  0.3642501878464502
  0.7190332278573174  0.0090634479542221  0.3642501878464502
  0.6888217474949854  0.0422960763526741  0.3642501878464502
  0.6586102671320203  0.0755287047528553  0.3642501878464502
  0.6283987867696883  0.1087613331513073  0.3642501878464502
  0.5981873064073563  0.1419939615497592  0.3642501878464502
  0.5679758260450243  0.1752265899482112  0.3642501878464502
  0.5377643456811946  0.2084592183466631  0.3642501878464502
  0.5075528653197272  0.2416918467468444  0.3642501878464502
  0.4773413849573952  0.2749244751452963  0.3642501878464502
  0.4471299045950632  0.3081571035437483  0.3642501878464502
  0.4169184242312335  0.3413897319422002  0.3642501878464502
  0.3867069438689015  0.3746223603406522  0.3642501878464502
  0.3564954635074342  0.4078549887408335  0.3642501878464502
  0.3262839831451022  0.4410876171392854  0.3642501878464502
  0.2960725027812725  0.4743202455377373  0.3642501878464502
  0.2658610224189405  0.5075528739361893  0.3642501878464502
  0.2356495420566085  0.5407855023346413  0.3642501878464502
  0.2054380616951411  0.5740181307348226  0.3642501878464502
  0.1752265813328091  0.6072507591332745  0.3642501878464502
  0.1450151009689794  0.6404833875317264  0.3642501878464502
  0.1148036206066474  0.6737160159301784  0.3642501878464502
  0.0845921402443154  0.7069486443286304  0.3642501878464502
  0.0543806598828480  0.7401812727288116  0.3642501878464502
  0.0241691795190184  0.7734139011272636  0.3642501878464502
  0.8126888169805636  0.0060422999181564  0.3642501878464502
  0.7824773366182315  0.0392749283166084  0.3642501878464502
  0.7522658562558995  0.0725075567150603  0.3642501878464502
  0.7220543758944321  0.1057401851152416  0.3642501878464502
  0.6918428955306025  0.1389728135136935  0.3642501878464502
  0.6616314151682704  0.1722054419121455  0.3642501878464502
  0.6314199348059385  0.2054380703105974  0.3642501878464502
  0.6012084544436065  0.2386706987090494  0.3642501878464502
  0.5709969740806414  0.2719033271092307  0.3642501878464502
  0.5407854937183095  0.3051359555076826  0.3642501878464502
  0.5105740133559774  0.3383685839061346  0.3642501878464502
  0.4803625329936455  0.3716012123045865  0.3642501878464502
  0.4501510526298158  0.4048338407030385  0.3642501878464502
  0.4199395722683484  0.4380664691032198  0.3642501878464502
  0.3897280919060164  0.4712990975016717  0.3642501878464502
  0.3595166115436843  0.5045317259001236  0.3642501878464502
  0.3293051311798547  0.5377643542985756  0.3642501878464502
  0.2990936508175226  0.5709969826970275  0.3642501878464502
  0.2688821704560553  0.6042296110972089  0.3642501878464502
  0.2386706900937234  0.6374622394956608  0.3642501878464502
  0.2084592097313913  0.6706948678941127  0.3642501878464502
  0.1782477293675616  0.7039274962925647  0.3642501878464502
  0.1480362490052296  0.7371601246910167  0.3642501878464502
  0.1178247686437623  0.7703927530911979  0.3642501878464502
  0.0876132882814302  0.8036253814896499  0.3642501878464502
  0.0574018079176006  0.8368580098881018  0.3642501878464502
  0.0271903275552686  0.8700906382865538  0.3642501878464502
  0.9063444061053074  0.0030211518820907  0.3642501878464502
  0.8761329257429754  0.0362537802805427  0.3642501878464502
  0.8459214453791457  0.0694864086789946  0.3642501878464502
  0.8157099650176783  0.1027190370791759  0.3642501878464502
  0.7854984846553464  0.1359516654776278  0.3642501878464502
  0.7552870042930143  0.1691842938760798  0.3642501878464502
  0.7250755239291847  0.2024169222745318  0.3642501878464502
  0.6948640435668526  0.2356495506729837  0.3642501878464502
  0.6646525632053853  0.2688821790731650  0.3642501878464502
  0.6344410828430532  0.3021148074716169  0.3642501878464502
  0.6042296024792236  0.3353474358700689  0.3642501878464502
  0.5740181221168915  0.3685800642685208  0.3642501878464502
  0.5438066417545596  0.4018126926669727  0.3642501878464502
  0.5135951613930922  0.4350453210671540  0.3642501878464502
  0.4833836810292625  0.4682779494656060  0.3642501878464502
  0.4531722006669305  0.5015105778640579  0.3642501878464502
  0.4229607203045986  0.5347432062625099  0.3642501878464502
  0.3927492399422666  0.5679758346609619  0.3642501878464502
  0.3625377595807991  0.6012084630611431  0.3642501878464502
  0.3323262792169695  0.6344410914595950  0.3642501878464502
  0.3021147988546375  0.6676737198580469  0.3642501878464502
  0.2719033184923054  0.7009063482564989  0.3642501878464502
  0.2416918381299735  0.7341389766549510  0.3642501878464502
  0.2114803577670084  0.7673716050551321  0.3642501878464502
  0.1812688774046764  0.8006042334535841  0.3642501878464502
  0.1510573970423444  0.8338368618520361  0.3642501878464502
  0.1208459166800124  0.8670694902504880  0.3642501878464502
  0.0906344363161827  0.9003021186489399  0.3642501878464502
  0.0604229559547154  0.9335347470491212  0.3642501878464502
  0.0302114755923834  0.9667673754475732  0.3642501878464502
  0.9697885148662216  0.0332326322444770  0.3642501878464502
  0.9395770345038896  0.0664652606429289  0.3642501878464502
  0.9093655541415575  0.0996978890413809  0.3642501878464502
  0.8791540737785926  0.1329305174415621  0.3642501878464502
  0.8489425934162605  0.1661631458400141  0.3642501878464502
  0.8187311130539285  0.1993957742384661  0.3642501878464502
  0.7885196326915965  0.2326284026369180  0.3642501878464502
  0.7583081523277668  0.2658610310353700  0.3642501878464502
  0.7280966719662995  0.2990936594355512  0.3642501878464502
  0.6978851916039674  0.3323262878340031  0.3642501878464502
  0.6676737112416354  0.3655589162324551  0.3642501878464502
  0.6374622308778060  0.3987915446309071  0.3642501878464502
  0.6072507505154738  0.4320241730293590  0.3642501878464502
  0.5770392701540065  0.4652568014295403  0.3642501878464502
  0.5468277897916743  0.4984894298279922  0.3642501878464502
  0.5166163094278449  0.5317220582264442  0.3642501878464502
  0.4864048290655128  0.5649546866248961  0.3642501878464502
  0.4561933487031807  0.5981873150233481  0.3642501878464502
  0.4259818683417134  0.6314199434235294  0.3642501878464502
  0.3957703879793814  0.6646525718219813  0.3642501878464502
  0.3655589076155517  0.6978852002204332  0.3642501878464502
  0.3353474272532197  0.7311178286188852  0.3642501878464502
  0.3051359468908877  0.7643504570173372  0.3642501878464502
  0.2749244665294203  0.7975830854175184  0.3642501878464502
  0.2447129861655907  0.8308157138159704  0.3642501878464502
  0.2145015058032586  0.8640483422144223  0.3642501878464502
  0.1842900254409266  0.8972809706128743  0.3642501878464502
  0.1540785450785946  0.9305135990113262  0.3642501878464502
  0.1238670647156296  0.9637462274115075  0.3642501878464502
  0.0936555843532976  0.9969788558099595  0.3642501878464502
  0.9728096629033365  0.1299093694054965  0.3642501878464502
  0.9425981825410045  0.1631419978039484  0.3642501878464502
  0.9123867021771748  0.1963746262024004  0.3642501878464502
  0.8821752218148428  0.2296072546008523  0.3642501878464502
  0.8519637414525107  0.2628398829993042  0.3642501878464502
  0.8217522610910434  0.2960725113994855  0.3642501878464502
  0.7915407807272138  0.3293051397979375  0.3642501878464502
  0.7613293003648817  0.3625377681963894  0.3642501878464502
  0.7311178200025497  0.3957703965948414  0.3642501878464502
  0.7009063396402176  0.4290030249932933  0.3642501878464502
  0.6706948592772527  0.4622356533934746  0.3642501878464502
  0.6404833789149206  0.4954682817919265  0.3642501878464502
  0.6102718985525887  0.5287009101903785  0.3642501878464502
  0.5800604181902567  0.5619335385888304  0.3642501878464502
  0.5498489378264270  0.5951661669872824  0.3642501878464502
  0.5196374574649596  0.6283987953874636  0.3642501878464502
  0.4894259771026276  0.6616314237859157  0.3642501878464502
  0.4592144967402956  0.6948640521843676  0.3642501878464502
  0.4290030163779636  0.7280966805828195  0.3642501878464502
  0.3987915360141339  0.7613293089812715  0.3642501878464502
  0.3685800556526665  0.7945619373814526  0.3642501878464502
  0.3383685752903344  0.8277945657799046  0.3642501878464502
  0.3081570949280025  0.8610271941783567  0.3642501878464502
  0.2779456145641728  0.8942598225768086  0.3642501878464502
  0.2477341342018408  0.9274924509752606  0.3642501878464502
  0.2175226538403734  0.9607250793754418  0.3642501878464502
  0.1873111734780414  0.9939577077738937  0.3642501878464502
  0.9758308109395866  0.2265861065647866  0.3642501878464502
  0.9456193305757569  0.2598187349632385  0.3642501878464502
  0.9154078502134250  0.2930513633616905  0.3642501878464502
  0.8851963698519576  0.3262839917618718  0.3642501878464502
  0.8549848894896256  0.3595166201603238  0.3642501878464502
  0.8247734091257958  0.3927492485587757  0.3642501878464502
  0.7945619287634639  0.4259818769572276  0.3642501878464502
  0.7643504484011319  0.4592145053556796  0.3642501878464502
  0.7341389680396645  0.4924471337558608  0.3642501878464502
  0.7039274876758349  0.5256797621543128  0.3642501878464502
  0.6737160073135029  0.5589123905527648  0.3642501878464502
  0.6435045269511708  0.5921450189512166  0.3642501878464502
  0.6132930465888389  0.6253776473496686  0.3642501878464502
  0.5830815662273715  0.6586102757498499  0.3642501878464502
  0.5528700858635417  0.6918429041483019  0.3642501878464502
  0.5226586055012098  0.7250755325467538  0.3642501878464502
  0.4924471251388777  0.7583081609452057  0.3642501878464502
  0.4622356447765457  0.7915407893436577  0.3642501878464502
  0.4320241644135807  0.8247734177438389  0.3642501878464502
  0.4018126840512487  0.8580060461422909  0.3642501878464502
  0.3716012036889167  0.8912386745407429  0.3642501878464502
  0.3413897233265847  0.9244713029391948  0.3642501878464502
  0.3111782429627550  0.9577039313376468  0.3642501878464502
  0.2809667626012876  0.9909365597378280  0.3642501878464502
  0.9788519589752039  0.3232628437258061  0.3642501878464502
  0.9486404786128718  0.3564954721242580  0.3642501878464502
  0.9184289982505397  0.3897281005227100  0.3642501878464502
  0.8882175178882078  0.4229607289211619  0.3642501878464502
  0.8580060375243780  0.4561933573196139  0.3642501878464502
  0.8277945571629107  0.4894259857197952  0.3642501878464502
  0.7975830768005787  0.5226586141182471  0.3642501878464502
  0.7673715964382467  0.5558912425166991  0.3642501878464502
  0.7371601160744170  0.5891238709151511  0.3642501878464502
  0.7069486357120850  0.6223564993136029  0.3642501878464502
  0.6767371553506177  0.6555891277137843  0.3642501878464502
  0.6465256749882856  0.6888217561122362  0.3642501878464502
  0.6163141946259537  0.7220543845106882  0.3642501878464502
  0.5861027142621240  0.7552870129091401  0.3642501878464502
  0.5558912338997919  0.7885196413075920  0.3642501878464502
  0.5256797535383246  0.8217522697077734  0.3642501878464502
  0.4954682731759926  0.8549848981062252  0.3642501878464502
  0.4652567928121629  0.8882175265046772  0.3642501878464502
  0.4350453124498309  0.9214501549031292  0.3642501878464502
  0.4048338320874988  0.9546827833015811  0.3642501878464502
  0.3746223517260315  0.9879154117017624  0.3642501878464502
  0.9818731070114540  0.4199395808850962  0.3642501878464502
  0.9516616266491219  0.4531722092835482  0.3642501878464502
  0.9214501462867899  0.4864048376820002  0.3642501878464502
  0.8912386659238251  0.5196374660821814  0.3642501878464502
  0.8610271855614930  0.5528700944806334  0.3642501878464502
  0.8308157051991609  0.5861027228790854  0.3642501878464502
  0.8006042248368289  0.6193353512775372  0.3642501878464502
  0.7703927444729992  0.6525679796759892  0.3642501878464502
  0.7401812641115318  0.6858006080761705  0.3642501878464502
  0.7099697837491998  0.7190332364746224  0.3642501878464502
  0.6797583033868679  0.7522658648730745  0.3642501878464502
  0.6495468230245358  0.7854984932715264  0.3642501878464502
  0.6193353426607062  0.8187311216699783  0.3642501878464502
  0.5891238622992389  0.8519637500701596  0.3642501878464502
  0.5589123819369067  0.8851963784686114  0.3642501878464502
  0.5287009015745748  0.9184290068670634  0.3642501878464502
  0.4984894212107451  0.9516616352655155  0.3642501878464502
  0.4682779408484131  0.9848942636639674  0.3642501878464502
  0.9848942550477041  0.5166163180443863  0.3642501878464502
  0.9546827746862369  0.5498489464445677  0.3642501878464502
  0.9244712943224072  0.5830815748430196  0.3642501878464502
  0.8942598139600753  0.6163142032414716  0.3642501878464502
  0.8640483335977431  0.6495468316399234  0.3642501878464502
  0.8338368532354110  0.6827794600383754  0.3642501878464502
  0.8036253728739436  0.7160120884385567  0.3642501878464502
  0.7734138925101141  0.7492447168370087  0.3642501878464502
  0.7432024121477820  0.7824773452354606  0.3642501878464502
  0.7129909317854500  0.8157099736339125  0.3642501878464502
  0.6827794514231180  0.8489426020323645  0.3642501878464502
  0.6525679710601531  0.8821752304325459  0.3642501878464502
  0.6223564906978211  0.9154078588309977  0.3642501878464502
  0.5921450103354889  0.9486404872294497  0.3642501878464502
  0.5619335299731569  0.9818731156279017  0.3642501878464502
  0.9879154030848188  0.6132930552054059  0.3642501878464502
  0.9577039227209894  0.6465256836038579  0.3642501878464502
  0.9274924423586574  0.6797583120023097  0.3642501878464502
  0.8972809619971900  0.7129909404024911  0.3642501878464502
  0.8670694816348580  0.7462235688009430  0.3642501878464502
  0.8368580012725260  0.7794561971993950  0.3642501878464502
  0.8066465209086963  0.8126888255978469  0.3642501878464502
  0.7764350405463643  0.8459214539962988  0.3642501878464502
  0.7462235601848969  0.8791540823964802  0.3642501878464502
  0.7160120798225649  0.9123867107949322  0.3642501878464502
  0.6858005994587352  0.9456193391933840  0.3642501878464502
  0.6555891190964032  0.9788519675918360  0.3642501878464502
  0.9909365511195716  0.7099697923646960  0.3642501878464502
  0.9607250707581043  0.7432024207648773  0.3642501878464502
  0.9305135903957721  0.7764350491633292  0.3642501878464502
  0.9003021100334401  0.8096676775617812  0.3642501878464502
  0.8700906296711082  0.8429003059602332  0.3642501878464502
  0.8398791493072785  0.8761329343586851  0.3642501878464502
  0.8096676689458110  0.9093655627588664  0.3642501878464502
  0.7794561885834791  0.9425981911573182  0.3642501878464502
  0.7492447082211470  0.9758308195557702  0.3642501878464502
  0.9939576991566863  0.8066465295257155  0.3642501878464502
  0.9637462187943544  0.8398791579241675  0.3642501878464502
  0.9335347384320224  0.8731117863226194  0.3642501878464502
  0.9033232580705549  0.9063444147228007  0.3642501878464502
  0.8731117777067253  0.9395770431212527  0.3642501878464502
  0.8429002973443933  0.9728096715197045  0.3642501878464502
  0.9969788471929366  0.9033232666850057  0.3642501878464502
  0.9667673668314692  0.9365558950851870  0.3642501878464502
  0.9365558864691372  0.9697885234836390  0.3642501878464502
 -0.0000000044123173  0.0000000109622089  0.6357498530678924
  0.0966767327471801  0.0030211589982746  0.6357498530678924
  0.0634441043490096  0.0332326393606609  0.6357498530678924
  0.0302114759502061  0.0634441197247764  0.6357498530678924
  0.1933534699081752  0.0060423070343403  0.6357498530678924
  0.1601208415093717  0.0362537873984559  0.6357498530678924
  0.1268882131112012  0.0664652677608421  0.6357498530678924
  0.0936555847115331  0.0966767481232284  0.6357498530678924
  0.0604229563133625  0.1268882284856147  0.6357498530678924
  0.0271903279136944  0.1570997088480009  0.6357498530678924
  0.2900302070685373  0.0090634550721353  0.6357498530678924
  0.2567975786688692  0.0392749354345216  0.6357498530678924
  0.2235649502706986  0.0694864157969078  0.6357498530678924
  0.1903323218725281  0.0996978961592941  0.6357498530678924
  0.1570996934728600  0.1299093765216804  0.6357498530678924
  0.1238670650746895  0.1601208568840666  0.6357498530678924
  0.0906344366750213  0.1903323372464528  0.6357498530678924
  0.0574018082768508  0.2205438176088391  0.6357498530678924
  0.0241691798771827  0.2507552979712254  0.6357498530678924
  0.3867069442280347  0.0120846031082010  0.6357498530678924
  0.3534743158298642  0.0422960834705873  0.6357498530678924
  0.3202416874301960  0.0725075638329735  0.6357498530678924
  0.2870090590320256  0.1027190441953598  0.6357498530678924
  0.2537764306323574  0.1329305245577460  0.6357498530678924
  0.2205438022341869  0.1631420049201323  0.6357498530678924
  0.1873111738360164  0.1933534852825186  0.6357498530678924
  0.1540785454363482  0.2235649656449048  0.6357498530678924
  0.1208459170381777  0.2537764460072910  0.6357498530678924
  0.0876132886385096  0.2839879263696773  0.6357498530678924
  0.0543806602412037  0.3141994067337929  0.6357498530678924
  0.0211480318415356  0.3444108870961791  0.6357498530678924
  0.4833836813890298  0.0151057511442667  0.6357498530678924
  0.4501510529893616  0.0453172315066530  0.6357498530678924
  0.4169184245911911  0.0755287118690392  0.6357498530678924
  0.3836857961915230  0.1057401922314255  0.6357498530678924
  0.3504531677933525  0.1359516725938117  0.6357498530678924
  0.3172205393936843  0.1661631529561980  0.6357498530678924
  0.2839879109955138  0.1963746333185843  0.6357498530678924
  0.2507552825958457  0.2265861136809705  0.6357498530678924
  0.2175226541976751  0.2567975940433567  0.6357498530678924
  0.1842900258003693  0.2870090744074723  0.6357498530678924
  0.1510573974007011  0.3172205547698586  0.6357498530678924
  0.1178247690025307  0.3474320351322449  0.6357498530678924
  0.0845921406028625  0.3776435154946311  0.6357498530678924
  0.0513595122046920  0.4078549958570174  0.6357498530678924
  0.0181268838050238  0.4380664762194036  0.6357498530678924
  0.5800604185485272  0.0181268991803324  0.6357498530678924
  0.5468277901503568  0.0483383795427186  0.6357498530678924
  0.5135951617506885  0.0785498599051049  0.6357498530678924
  0.4803625333525181  0.1087613402674912  0.6357498530678924
  0.4471299049528499  0.1389728206298774  0.6357498530678924
  0.4138972765546794  0.1691843009922637  0.6357498530678924
  0.3806646481550112  0.1993957813546499  0.6357498530678924
  0.3474320197577054  0.2296072617187655  0.6357498530678924
  0.3141993913580373  0.2598187420811517  0.6357498530678924
  0.2809667629598667  0.2900302224435380  0.6357498530678924
  0.2477341345601986  0.3202417028059243  0.6357498530678924
  0.2145015061620281  0.3504531831683105  0.6357498530678924
  0.1812688777638576  0.3806646635306968  0.6357498530678924
  0.1480362493641894  0.4108761438930831  0.6357498530678924
  0.1148036209660189  0.4410876242554693  0.6357498530678924
  0.0815709925663508  0.4712991046178556  0.6357498530678924
  0.0483383641681802  0.5015105849802418  0.6357498530678924
  0.0151057357685121  0.5317220653426281  0.6357498530678924
  0.6767371557080247  0.0211480472163981  0.6357498530678924
  0.6435045273098542  0.0513595275787843  0.6357498530678924
  0.6102718989101859  0.0815710079411706  0.6357498530678924
  0.5770392705120154  0.1117824883035569  0.6357498530678924
  0.5438066421138450  0.1419939686659431  0.6357498530678924
  0.5105740137141769  0.1722054490283294  0.6357498530678924
  0.4773413853168709  0.2024169293924449  0.6357498530678924
  0.4441087569172028  0.2326284097548312  0.6357498530678924
  0.4108761285190323  0.2628398901172175  0.6357498530678924
  0.3776435001193642  0.2930513704796037  0.6357498530678924
  0.3444108717211937  0.3232628508419900  0.6357498530678924
  0.3111782433215255  0.3534743312043763  0.6357498530678924
  0.2779456149233550  0.3836858115667625  0.6357498530678924
  0.2447129865236868  0.4138972919291487  0.6357498530678924
  0.2114803581255164  0.4441087722915350  0.6357498530678924
  0.1782477297273458  0.4743202526539212  0.6357498530678924
  0.1450151013276777  0.5045317330163075  0.6357498530678924
  0.1117824729303718  0.5347432133804231  0.6357498530678924
  0.0785498445307037  0.5649546937428094  0.6357498530678924
  0.0453172161325332  0.5951661741051956  0.6357498530678924
  0.0120845877328651  0.6253776544675819  0.6357498530678924
  0.7734138928690197  0.0241691952524638  0.6357498530678924
  0.7401812644693515  0.0543806756148500  0.6357498530678924
  0.7069486360711811  0.0845921559772363  0.6357498530678924
  0.6737160076715130  0.1148036363396226  0.6357498530678924
  0.6404833792733424  0.1450151167020088  0.6357498530678924
  0.6072507508745388  0.1752265970661244  0.6357498530678924
  0.5740181224763684  0.2054380774285106  0.6357498530678924
  0.5407854940781980  0.2356495577908969  0.6357498530678924
  0.5075528656785298  0.2658610381532832  0.6357498530678924
  0.4743202372803592  0.2960725185156694  0.6357498530678924
  0.4410876088806911  0.3262839988780556  0.6357498530678924
  0.4078549804825206  0.3564954792404419  0.6357498530678924
  0.3746223520828524  0.3867069596028282  0.6357498530678924
  0.3413897236846819  0.4169184399652144  0.6357498530678924
  0.3081570952850138  0.4471299203276007  0.6357498530678924
  0.2749244668868433  0.4773414006899870  0.6357498530678924
  0.2416918384880398  0.5075528810541026  0.6357498530678924
  0.2084592100898693  0.5377643614164888  0.6357498530678924
  0.1752265816916987  0.5679758417788751  0.6357498530678924
  0.1419939532920306  0.5981873221412614  0.6357498530678924
  0.1087613248938601  0.6283988025036475  0.6357498530678924
  0.0755286964941920  0.6586102828660338  0.6357498530678924
  0.0422960680960215  0.6888217632284201  0.6357498530678924
  0.0090634396963533  0.7190332435908063  0.6357498530678924
  0.8700906300285172  0.0271903432885295  0.6357498530678924
  0.8368580016303466  0.0574018236509157  0.6357498530678924
  0.8036253732306785  0.0876133040133020  0.6357498530678924
  0.7703927448325080  0.1178247843756882  0.6357498530678924
  0.7371601164337045  0.1480362647398038  0.6357498530678924
  0.7039274880355340  0.1782477451021901  0.6357498530678924
  0.6706948596358658  0.2084592254645763  0.6357498530678924
  0.6374622312376953  0.2386707058269626  0.6357498530678924
  0.6042296028380272  0.2688821861893488  0.6357498530678924
  0.5709969744398566  0.2990936665517351  0.6357498530678924
  0.5377643460416862  0.3293051469141214  0.6357498530678924
  0.5045317176420180  0.3595166272765076  0.6357498530678924
  0.4712990892438475  0.3897281076388939  0.6357498530678924
  0.4380664608441793  0.4199395880012801  0.6357498530678924
  0.4048338324460088  0.4501510683636664  0.6357498530678924
  0.3716012040472054  0.4803625487277820  0.6357498530678924
  0.3383685756490348  0.5105740290901682  0.6357498530678924
  0.3051359472493667  0.5407855094525544  0.6357498530678924
  0.2719033188511962  0.5709969898149407  0.6357498530678924
  0.2386706904515281  0.6012084701773270  0.6357498530678924
  0.2054380620533576  0.6314199505397133  0.6357498530678924
  0.1722054336551870  0.6616314309020994  0.6357498530678924
  0.1389728052555189  0.6918429112644857  0.6357498530678924
  0.1057401768573484  0.7220543916268720  0.6357498530678924
  0.0725075484576802  0.7522658719892582  0.6357498530678924
  0.0392749200595097  0.7824773523516445  0.6357498530678924
  0.0060422916607062  0.8126888327157601  0.6357498530678924
  0.9667673671880146  0.0302114913245952  0.6357498530678924
  0.9335347387898441  0.0604229716869814  0.6357498530678924
  0.9003021103916735  0.0906344520493677  0.6357498530678924
  0.8670694819928702  0.1208459324134833  0.6357498530678924
  0.8338368535946995  0.1510574127758695  0.6357498530678924
  0.8006042251950314  0.1812688931382558  0.6357498530678924
  0.7673715967968608  0.2114803735006420  0.6357498530678924
  0.7341389683971928  0.2416918538630283  0.6357498530678924
  0.7009063399990223  0.2719033342254146  0.6357498530678924
  0.6676737115993541  0.3021148145878008  0.6357498530678924
  0.6344410832011835  0.3323262949501871  0.6357498530678924
  0.6012084548015154  0.3625377753125733  0.6357498530678924
  0.5679758264033450  0.3927492556749596  0.6357498530678924
  0.5347431980051744  0.4229607360373459  0.6357498530678924
  0.5015105696063709  0.4531722164014614  0.6357498530678924
  0.4682779412082004  0.4833836967638477  0.6357498530678924
  0.4350453128085323  0.5135951771262339  0.6357498530678924
  0.4018126844103618  0.5438066574886202  0.6357498530678924
  0.3685800560106936  0.5740181378510064  0.6357498530678924
  0.3353474276125231  0.6042296182133926  0.6357498530678924
  0.3021147992128549  0.6344410985757789  0.6357498530678924
  0.2688821708146845  0.6646525789381652  0.6357498530678924
  0.2356495424150163  0.6948640593005514  0.6357498530678924
  0.2024169140168458  0.7250755396629377  0.6357498530678924
  0.1691842856186753  0.7552870200253240  0.6357498530678924
  0.1359516572198718  0.7854985003894396  0.6357498530678924
  0.1027190288217013  0.8157099807518259  0.6357498530678924
  0.0694864004220332  0.8459214611142121  0.6357498530678924
  0.0362537720238627  0.8761329414765984  0.6357498530678924
  0.0030211436241946  0.9063444218389847  0.6357498530678924
  0.9969788475520355  0.0936556000871627  0.6357498530678924
  0.9637462191523676  0.1238670804495490  0.6357498530678924
  0.9305135907541969  0.1540785608119352  0.6357498530678924
  0.8972809623560265  0.1842900411743215  0.6357498530678924
  0.8640483339563584  0.2145015215367077  0.6357498530678924
  0.8308157055581878  0.2447130018990940  0.6357498530678924
  0.7975830771585196  0.2749244822614802  0.6357498530678924
  0.7643504487603492  0.3051359626238665  0.6357498530678924
  0.7311178203606811  0.3353474429862528  0.6357498530678924
  0.6978851919625105  0.3655589233486390  0.6357498530678924
  0.6646525635637071  0.3957704037127546  0.6357498530678924
  0.6314199351655365  0.4259818840751409  0.6357498530678924
  0.5981873067658684  0.4561933644375271  0.6357498530678924
  0.5649546783676979  0.4864048447999133  0.6357498530678924
  0.5317220499695273  0.5166163251622996  0.6357498530678924
  0.4984894215698592  0.5468278055246859  0.6357498530678924
  0.4652567931716887  0.5770392858870721  0.6357498530678924
  0.4320241647720205  0.6072507662494584  0.6357498530678924
  0.3987915363738500  0.6374622466118446  0.6357498530678924
  0.3655589079741819  0.6676737269742309  0.6357498530678924
  0.3323262795760114  0.6978852073366172  0.6357498530678924
  0.2990936511772079  0.7280966877007328  0.6357498530678924
  0.2658610227790374  0.7583081680631191  0.6357498530678924
  0.2326283943793692  0.7885196484255051  0.6357498530678924
  0.1993957659811987  0.8187311287878914  0.6357498530678924
  0.1661631375830282  0.8489426091502777  0.6357498530678924
  0.1329305091833600  0.8791540895126639  0.6357498530678924
  0.0996978807851895  0.9093655698750502  0.6357498530678924
  0.0664652523855214  0.9395770502374365  0.6357498530678924
  0.0332326239873508  0.9697885305998227  0.6357498530678924
  0.9939576995155238  0.1873111892103872  0.6357498530678924
  0.9607250711158557  0.2175226695727734  0.6357498530678924
  0.9274924427176853  0.2477341499351597  0.6357498530678924
  0.8942598143195147  0.2779456302975459  0.6357498530678924
  0.8610271859198466  0.3081571106599322  0.6357498530678924
  0.8277945575216760  0.3383685910223184  0.6357498530678924
  0.7945619291228726  0.3685800713864340  0.6357498530678924
  0.7613293007247021  0.3987915517488202  0.6357498530678924
  0.7280966723250339  0.4290030321112066  0.6357498530678924
  0.6948640439268634  0.4592145124735928  0.6357498530678924
  0.6616314155271953  0.4894259928359790  0.6357498530678924
  0.6283987871290247  0.5196374731983653  0.6357498530678924
  0.5951661587293566  0.5498489535607516  0.6357498530678924
  0.5619335303311861  0.5800604339231379  0.6357498530678924
  0.5287009019330156  0.6102719142855241  0.6357498530678924
  0.4954682735333474  0.6404833946479104  0.6357498530678924
  0.4622356451351770  0.6706948750102967  0.6357498530678924
  0.4290030167363735  0.7009063553744121  0.6357498530678924
  0.3957703883382029  0.7311178357367983  0.6357498530678924
  0.3625377599385348  0.7613293160991846  0.6357498530678924
  0.3293051315403643  0.7915407964615709  0.6357498530678924
  0.2960725031406961  0.8217522768239571  0.6357498530678924
  0.2628398747425256  0.8519637571863434  0.6357498530678924
  0.2296072463428575  0.8821752375487297  0.6357498530678924
  0.1963746179446870  0.9123867179111159  0.6357498530678924
  0.1631419895465165  0.9425981982735022  0.6357498530678924
  0.1299093611468484  0.9728096786358885  0.6357498530678924
  0.9909365514790122  0.2809667783336117  0.6357498530678924
  0.9577039230793440  0.3111782586959979  0.6357498530678924
  0.9244712946820383  0.3413897390601135  0.6357498530678924
  0.8912386662838676  0.3716012194224997  0.6357498530678924
  0.8580060378841995  0.4018126997848860  0.6357498530678924
  0.8247734094860290  0.4320241801472722  0.6357498530678924
  0.7915407810863609  0.4622356605096585  0.6357498530678924
  0.7583081526881904  0.4924471408720447  0.6357498530678924
  0.7250755242885222  0.5226586212344310  0.6357498530678924
  0.6918428958903516  0.5528701015968173  0.6357498530678924
  0.6586102674906835  0.5830815819592036  0.6357498530678924
  0.6253776390925131  0.6132930623215898  0.6357498530678924
  0.5921450106928449  0.6435045426839759  0.6357498530678924
  0.5589123822955391  0.6737160230480916  0.6357498530678924
  0.5256797538973685  0.7039275034104778  0.6357498530678924
  0.4924471254977004  0.7341389837728641  0.6357498530678924
  0.4592144970995299  0.7643504641352504  0.6357498530678924
  0.4259818686998617  0.7945619444976366  0.6357498530678924
  0.3927492403016912  0.8247734248600229  0.6357498530678924
  0.3595166119020231  0.8549849052224092  0.6357498530678924
  0.3262839835038526  0.8851963855847954  0.6357498530678924
  0.2930513551041844  0.9154078659471817  0.6357498530678924
  0.2598187267060140  0.9456193463095680  0.6357498530678924
  0.2265860983063458  0.9758308266719542  0.6357498530678924
  0.9879154034433650  0.3746223674585654  0.6357498530678924
  0.9546827750436969  0.4048338478209517  0.6357498530678924
  0.9214501466455264  0.4350453281833379  0.6357498530678924
  0.8882175182473560  0.4652568085457242  0.6357498530678924
  0.8549848898476877  0.4954682889081105  0.6357498530678924
  0.8217522614495173  0.5256797692704968  0.6357498530678924
  0.7885196330498492  0.5558912496328829  0.6357498530678924
  0.7552870046516786  0.5861027299952691  0.6357498530678924
  0.7220543762520105  0.6163142103576554  0.6357498530678924
  0.6888217478547046  0.6465256907217710  0.6357498530678924
  0.6555891194550365  0.6767371710841573  0.6357498530678924
  0.6223564910568660  0.7069486514465436  0.6357498530678924
  0.5891238626571977  0.7371601318089298  0.6357498530678924
  0.5558912342590273  0.7673716121713161  0.6357498530678924
  0.5226586058608569  0.7975830925337024  0.6357498530678924
  0.4894259774611887  0.8277945728960886  0.6357498530678924
  0.4561933490630182  0.8580060532584749  0.6357498530678924
  0.4229607206633500  0.8882175336208611  0.6357498530678924
  0.3897280922651794  0.9184290139832473  0.6357498530678924
  0.3564954638655113  0.9486404943456336  0.6357498530678924
  0.3232628354682055  0.9788519747097492  0.6357498530678924
  0.9848942554068534  0.4682779565817898  0.6357498530678924
  0.9516616270086828  0.4984894369441761  0.6357498530678924
  0.9184289986090147  0.5287009173065623  0.6357498530678924
  0.8851963702108441  0.5589123976689486  0.6357498530678924
  0.8519637418111761  0.5891238780313349  0.6357498530678924
  0.8187311134138703  0.6193353583954505  0.6357498530678924
  0.7854984850142022  0.6495468387578368  0.6357498530678924
  0.7522658566160315  0.6797583191202230  0.6357498530678924
  0.7190332282163634  0.7099697994826092  0.6357498530678924
  0.6858005998181929  0.7401812798449955  0.6357498530678924
  0.6525679714185247  0.7703927602073817  0.6357498530678924
  0.6193353430203542  0.8006042405697680  0.6357498530678924
  0.5861027146206861  0.8308157209321543  0.6357498530678924
  0.5528700862225155  0.8610272012945405  0.6357498530678924
  0.5196374578243451  0.8912386816569268  0.6357498530678924
  0.4864048294246770  0.9214501620193131  0.6357498530678924
  0.4531722010273710  0.9516616423834287  0.6357498530678924
  0.4199395726277029  0.9818731227458150  0.6357498530678924
  0.9818731073712063  0.5619335457067436  0.6357498530678924
  0.9486404789730357  0.5921450260691299  0.6357498530678924
  0.9154078505733675  0.6223565064315161  0.6357498530678924
  0.8821752221751971  0.6525679867939024  0.6357498530678924
  0.8489425937755291  0.6827794671562887  0.6357498530678924
  0.8157099653773585  0.7129909475186749  0.6357498530678924
  0.7824773369776903  0.7432024278810612  0.6357498530678924
  0.7492447085795197  0.7734139082434475  0.6357498530678924
  0.7160120801798516  0.8036253886058337  0.6357498530678924
  0.6827794517816812  0.8338368689682200  0.6357498530678924
  0.6495468233820131  0.8640483493306063  0.6357498530678924
  0.6163141949847071  0.8942598296947218  0.6357498530678924
  0.5830815665850391  0.9244713100571081  0.6357498530678924
  0.5498489381868685  0.9546827904194943  0.6357498530678924
  0.5166163097886980  0.9848942707818805  0.6357498530678924
  0.9788519593346946  0.6555891348299682  0.6357498530678924
  0.9456193309365241  0.6858006151923544  0.6357498530678924
  0.9123867025368558  0.7160120955547407  0.6357498530678924
  0.8791540741386854  0.7462235759171270  0.6357498530678924
  0.8459214457390173  0.7764350562795131  0.6357498530678924
  0.8126888173408467  0.8066465366418994  0.6357498530678924
  0.7794561889411786  0.8368580170042856  0.6357498530678924
  0.7462235605438727  0.8670694973684012  0.6357498530678924
  0.7129909321442045  0.8972809777307874  0.6357498530678924
  0.6797583037460341  0.9274924580931737  0.6357498530678924
  0.6465256753463660  0.9577039384555600  0.6357498530678924
  0.6132930469481953  0.9879154188179462  0.6357498530678924
  0.9758308112981829  0.7492447239531926  0.6357498530678924
  0.9425981829000123  0.7794562043155789  0.6357498530678924
  0.9093655545003442  0.8096676846779651  0.6357498530678924
  0.8761329261030383  0.8398791650420806  0.6357498530678924
  0.8429002977033702  0.8700906454044669  0.6357498530678924
  0.8096676693051996  0.9003021257668532  0.6357498530678924
  0.7764350409055315  0.9305136061292394  0.6357498530678924
  0.7432024125073610  0.9607250864916257  0.6357498530678924
  0.7099697841076928  0.9909365668540120  0.6357498530678924
  0.9728096632625357  0.8429003130781464  0.6357498530678924
  0.9395770348643653  0.8731117934405327  0.6357498530678924
  0.9063444064646970  0.9033232738029189  0.6357498530678924
  0.8731117780665266  0.9335347541653052  0.6357498530678924
  0.8398791496668585  0.9637462345276915  0.6357498530678924
  0.8066465212686879  0.9939577148900777  0.6357498530678924
  0.9697885152260238  0.9365559022013707  0.6357498530678924
  0.9365558868278535  0.9667673825637570  0.6357498530678924
  0.9033232584281854  0.9969788629261433  0.6357498530678924
  0.0010070532034517  0.0322255837609034  0.3000369231250736
  0.9687814702938261  0.0010070493465081  0.4279146484946129
  0.0644511619652305  0.0624370641250190  0.3000369231250736
  0.0322255790547403  0.0312185297088944  0.4279146484946129
  0.0342396816028985  0.0956696925234710  0.3000369231250736
  0.0020140986924083  0.0644511581073463  0.4279146484946129
  0.0040282012405665  0.1289023209219229  0.3000369231250736
  0.9718026183285787  0.0976837865057983  0.4279146484946129
  0.1581067510891098  0.0594159160872240  0.3000369231250736
  0.1258811681779866  0.0281973816728287  0.4279146484946129
  0.1278952707261447  0.0926485444874053  0.3000369231250736
  0.0956696878156545  0.0614300100712806  0.4279146484946129
  0.0976837903638127  0.1258811728858572  0.3000369231250736
  0.0654582074533225  0.0946626384697326  0.4279146484946129
  0.0674723100014807  0.1591138012843092  0.3000369231250736
  0.0352467270909905  0.1278952668681845  0.4279146484946129
  0.0372608296391487  0.1923464296827611  0.3000369231250736
  0.0050352467271608  0.1611278952666365  0.4279146484946129
  0.0070493492753190  0.2255790580812131  0.3000369231250736
  0.9748237663656936  0.1943605236668177  0.4279146484946129
  0.2517623402123559  0.0563947680511583  0.3000369231250736
  0.2195367573027304  0.0251762336367630  0.4279146484946129
  0.2215508598500239  0.0896273964496102  0.3000369231250736
  0.1893252769403984  0.0584088620352149  0.4279146484946129
  0.1913393794885566  0.1228600248497915  0.3000369231250736
  0.1591137965765687  0.0916414904336669  0.4279146484946129
  0.1611278991247269  0.1560926532482435  0.3000369231250736
  0.1289023162142367  0.1248741188321188  0.4279146484946129
  0.1309164187623949  0.1893252816466954  0.3000369231250736
  0.0986908358519047  0.1581067472305708  0.4279146484946129
  0.1007049384000629  0.2225579100451474  0.3000369231250736
  0.0684793554904374  0.1913393756307521  0.4279146484946129
  0.0704934580377309  0.2557905384435993  0.3000369231250736
  0.0382678751266077  0.2245720040292040  0.4279146484946129
  0.0402819776747659  0.2890231668437806  0.3000369231250736
  0.0080563947642757  0.2578046324276559  0.4279146484946129
  0.0100704973124338  0.3222557952422325  0.3000369231250736
  0.9778449144019437  0.2910372608261079  0.4279146484946129
  0.3454179293370998  0.0533736200150926  0.3000369231250736
  0.3131923464251120  0.0221550855989680  0.4279146484946129
  0.3152064489732702  0.0866062484135445  0.3000369231250736
  0.2829808660636446  0.0553877139991492  0.4279146484946129
  0.2849949686118028  0.1198388768137258  0.3000369231250736
  0.2527693857013126  0.0886203423976012  0.4279146484946129
  0.2547834882494708  0.1530715052121778  0.3000369231250736
  0.2225579053389806  0.1218529707960531  0.4279146484946129
  0.2245720078871388  0.1863041336106297  0.3000369231250736
  0.1923464249751509  0.1550855991945051  0.4279146484946129
  0.1943605275233091  0.2195367620090817  0.3000369231250736
  0.1621349446128189  0.1883182275929570  0.4279146484946129
  0.1641490471609771  0.2527693904075337  0.3000369231250736
  0.1319234642513516  0.2215508559931383  0.4279146484946129
  0.1339375667995097  0.2860020188077149  0.3000369231250736
  0.1017119838890195  0.2547834843915903  0.4279146484946129
  0.1037260864371777  0.3192346472061668  0.3000369231250736
  0.0715005035251899  0.2880161127900422  0.4279146484946129
  0.0735146060733480  0.3524672756046188  0.3000369231250736
  0.0412890231628579  0.3212487411884942  0.4279146484946129
  0.0433031257110160  0.3856999040030707  0.3000369231250736
  0.0110775428005258  0.3544813695869461  0.4279146484946129
  0.0130916453486840  0.4189325324015227  0.3000369231250736
  0.9808660624390585  0.3877139979871274  0.4279146484946129
  0.4390735184603460  0.0503524719790269  0.3000369231250736
  0.4068479355498559  0.0191339375629023  0.4279146484946129
  0.4088620380980140  0.0835851003774789  0.3000369231250736
  0.3766364551868909  0.0523665659630835  0.4279146484946129
  0.3786505577356820  0.1168177287759308  0.3000369231250736
  0.3464249748245589  0.0855991943615355  0.4279146484946129
  0.3484390773727171  0.1500503571761121  0.3000369231250736
  0.3162134944622268  0.1188318227599875  0.4279146484946129
  0.3182275970103850  0.1832829855745640  0.3000369231250736
  0.2860020140998948  0.1520644511584394  0.4279146484946129
  0.2880161166480530  0.2165156139730160  0.3000369231250736
  0.2557905337375628  0.1852970795568913  0.4279146484946129
  0.2578046362857210  0.2497482423714679  0.3000369231250736
  0.2255790533745978  0.2185297079570726  0.4279146484946129
  0.2275931559218913  0.2829808707699199  0.3000369231250736
  0.1953675730122658  0.2517623363555246  0.4279146484946129
  0.1973816755604239  0.3162134991701011  0.3000369231250736
  0.1651560926499338  0.2849949647539765  0.4279146484946129
  0.1671701951980920  0.3494461275685531  0.3000369231250736
  0.1349446122876017  0.3182275931524284  0.4279146484946129
  0.1369587148357599  0.3826787559670051  0.3000369231250736
  0.1047331319237721  0.3514602215508804  0.4279146484946129
  0.1067472344719302  0.4159113843654570  0.3000369231250736
  0.0745216515623047  0.3846928499510617  0.4279146484946129
  0.0765357541095982  0.4491440127639090  0.3000369231250736
  0.0443101711999727  0.4179254783495137  0.4279146484946129
  0.0463242737481309  0.4823766411640902  0.3000369231250736
  0.0140986908376407  0.4511581067479656  0.4279146484946129
  0.0161127933857989  0.5156092695625422  0.3000369231250736
  0.9838872104753088  0.4843907351464176  0.4279146484946129
  0.5327291075850900  0.0473313239429612  0.3000369231250736
  0.5005035246731021  0.0161127895268366  0.4279146484946129
  0.5025176272212603  0.0805639523414132  0.3000369231250736
  0.4702920443107700  0.0493454179252885  0.4279146484946129
  0.4723061468589282  0.1137965807398651  0.3000369231250736
  0.4400805639493027  0.0825780463254698  0.4279146484946129
  0.4420946664974609  0.1470292091400464  0.3000369231250736
  0.4098690835869707  0.1158106747239218  0.4279146484946129
  0.4118831861351289  0.1802618375384983  0.3000369231250736
  0.3796576032231410  0.1490433031223737  0.4279146484946129
  0.3816717057712992  0.2134944659369503  0.3000369231250736
  0.3494461228608090  0.1822759315208256  0.4279146484946129
  0.3514602254089672  0.2467270943354022  0.3000369231250736
  0.3192346424984770  0.2155085599192776  0.4279146484946129
  0.3212487450466352  0.2799597227338542  0.3000369231250736
  0.2890231621370097  0.2487411883194589  0.4279146484946129
  0.2910372646851678  0.3131923511340355  0.3000369231250736
  0.2588116817731800  0.2819738167179108  0.4279146484946129
  0.2608257843213381  0.3464249795324874  0.3000369231250736
  0.2286002014108479  0.3152064451163628  0.4279146484946129
  0.2306143039590061  0.3796576079309394  0.3000369231250736
  0.1983887210485159  0.3484390735148147  0.4279146484946129
  0.2004028235966741  0.4128902363293913  0.3000369231250736
  0.1681772406861839  0.3816717019132667  0.4279146484946129
  0.1701913432343421  0.4461228647278432  0.3000369231250736
  0.1379657603232189  0.4149043303134480  0.4279146484946129
  0.1399798628728747  0.4793554931280245  0.3000369231250736
  0.1077542799608869  0.4481369587118999  0.4279146484946129
  0.1097683825090451  0.5125881215264765  0.3000369231250736
  0.0775427995985549  0.4813695871103518  0.4279146484946129
  0.0795569021467131  0.5458207499249285  0.3000369231250736
  0.0473313192362229  0.5146022155088038  0.4279146484946129
  0.0493454217843811  0.5790533783233804  0.3000369231250736
  0.0171198388723932  0.5478348439072558  0.4279146484946129
  0.0191339414220490  0.6122860067218323  0.3000369231250736
  0.9869083585109258  0.5810674723074369  0.4279146484946129
  0.6263846967083362  0.0443101759068955  0.3000369231250736
  0.5941591137978459  0.0130916414907709  0.4279146484946129
  0.5961732163460042  0.0775428043053475  0.3000369231250736
  0.5639476334340163  0.0463242698892228  0.4279146484946129
  0.5659617359836721  0.1107754327037994  0.3000369231250736
  0.5337361530725491  0.0795568982894041  0.4279146484946129
  0.5357502556198425  0.1440080611022514  0.3000369231250736
  0.5035246727102169  0.1127895266878561  0.4279146484946129
  0.5055387752583751  0.1772406895024327  0.3000369231250736
  0.4733131923478849  0.1460221550863080  0.4279146484946129
  0.4753272948960431  0.2104733179008846  0.3000369231250736
  0.4431017119855529  0.1792547834847600  0.4279146484946129
  0.4451158145337111  0.2437059462993366  0.3000369231250736
  0.4128902316217232  0.2124874118832119  0.4279146484946129
  0.4149043341698814  0.2769385746977885  0.3000369231250736
  0.3826787512602559  0.2457200402833932  0.4279146484946129
  0.3846928538075493  0.3101712030962404  0.3000369231250736
  0.3524672708979238  0.2789526686818451  0.4279146484946129
  0.3544813734460820  0.3434038314964217  0.3000369231250736
  0.3222557905355918  0.3121852970802971  0.4279146484946129
  0.3242698930837500  0.3766364598948737  0.3000369231250736
  0.2920443101717622  0.3454179254787491  0.4279146484946129
  0.2940584127199203  0.4098690882933256  0.3000369231250736
  0.2618328298094301  0.3786505538772010  0.4279146484946129
  0.2638469323575883  0.4431017166917776  0.3000369231250736
  0.2316213494479628  0.4118831822773822  0.4279146484946129
  0.2336354519952563  0.4763343450902295  0.3000369231250736
  0.2014098690856307  0.4451158106758342  0.4279146484946129
  0.2034239716337890  0.5095669734904108  0.3000369231250736
  0.1711983887218011  0.4783484390742861  0.4279146484946129
  0.1732124912714569  0.5427996018888627  0.3000369231250736
  0.1409869083594691  0.5115810674727381  0.4279146484946129
  0.1430010109076272  0.5760322302873147  0.3000369231250736
  0.1107754279971370  0.5448136958711900  0.4279146484946129
  0.1127895305452953  0.6092648586857667  0.3000369231250736
  0.0805639476356697  0.5780463242713714  0.4279146484946129
  0.0825780501829632  0.6424974870842186  0.3000369231250736
  0.0503524672718400  0.6112789526698232  0.4279146484946129
  0.0523665698214959  0.6757301154843999  0.3000369231250736
  0.0201409869095080  0.6445115810682752  0.4279146484946129
  0.0221550894576662  0.7089627438828517  0.3000369231250736
  0.9899295065471760  0.6777442094667272  0.4279146484946129
  0.7200402858330801  0.0412890278708298  0.3000369231250736
  0.6878147029210923  0.0100704934547052  0.4279146484946129
  0.6898288054692504  0.0745216562692818  0.3000369231250736
  0.6576032225587601  0.0433031218531571  0.4279146484946129
  0.6596173251069183  0.1077542846677337  0.3000369231250736
  0.6273917421964281  0.0765357502516091  0.4279146484946129
  0.6294058447445864  0.1409869130661857  0.3000369231250736
  0.5971802618334632  0.1097683786517904  0.4279146484946129
  0.5991943643831190  0.1742195414663670  0.3000369231250736
  0.5669687814711312  0.1430010070502423  0.4279146484946129
  0.5689828840192893  0.2074521698648189  0.3000369231250736
  0.5367573011087992  0.1762336354486943  0.4279146484946129
  0.5387714036569573  0.2406847982632709  0.3000369231250736
  0.5065458207464670  0.2094662638471462  0.4279146484946129
  0.5085599232946253  0.2739174266617228  0.3000369231250736
  0.4763343403841351  0.2426988922455982  0.4279146484946129
  0.4783484429322933  0.3071500550601748  0.3000369231250736
  0.4461228600211700  0.2759315206457795  0.4279146484946129
  0.4481369625693282  0.3403826834603560  0.3000369231250736
  0.4159113796588380  0.3091641490442314  0.4279146484946129
  0.4179254822069962  0.3736153118588080  0.3000369231250736
  0.3856998992965061  0.3423967774426833  0.4279146484946129
  0.3877140018446642  0.4068479402572599  0.3000369231250736
  0.3554884189341740  0.3756294058411353  0.4279146484946129
  0.3575025214823322  0.4400805686557119  0.3000369231250736
  0.3252769385703443  0.4088620342395872  0.4279146484946129
  0.3272910411185025  0.4733131970541639  0.3000369231250736
  0.2950654582088770  0.4420946626397685  0.4279146484946129
  0.2970795607570352  0.5065458254543451  0.3000369231250736
  0.2648539778465450  0.4753272910382205  0.4279146484946129
  0.2668680803947032  0.5397784538527971  0.3000369231250736
  0.2346424974842130  0.5085599194366724  0.4279146484946129
  0.2366566000323711  0.5730110822512490  0.3000369231250736
  0.2044310171203833  0.5417925478351243  0.4279146484946129
  0.2064451196700391  0.6062437106497010  0.3000369231250736
  0.1742195367580513  0.5750251762335763  0.4279146484946129
  0.1762336393062095  0.6394763390481529  0.3000369231250736
  0.1440080563965840  0.6082578046337577  0.4279146484946129
  0.1460221589447421  0.6727089674483342  0.3000369231250736
  0.1137965760342519  0.6414904330322095  0.4279146484946129
  0.1158106785824101  0.7059415958467862  0.3000369231250736
  0.0835850956704223  0.6747230614306615  0.4279146484946129
  0.0855991982200781  0.7391742242452380  0.3000369231250736
  0.0533736153080903  0.7079556898291135  0.4279146484946129
  0.0553877178562484  0.7724068526436900  0.3000369231250736
  0.0231621349457582  0.7411883182275654  0.4279146484946129
  0.0251762374939164  0.8056394810421420  0.3000369231250736
  0.9929506545842908  0.7744209466277467  0.4279146484946129
  0.8136958749563263  0.0382678798347641  0.3000369231250736
  0.7814702920458360  0.0070493454186395  0.4279146484946129
  0.7834843945939942  0.0715005082332161  0.3000369231250736
  0.7512588116820064  0.0402819738170914  0.4279146484946129
  0.7532729142316622  0.1047331366316680  0.3000369231250736
  0.7210473313196745  0.0735146022155434  0.4279146484946129
  0.7230614338678326  0.1379657650301200  0.3000369231250736
  0.6908358509582071  0.1067472306157247  0.4279146484946129
  0.6928499535055005  0.1711983934285719  0.3000369231250736
  0.6606243705958750  0.1399798590141766  0.4279146484946129
  0.6626384731440331  0.2044310218287532  0.3000369231250736
  0.6304128902335431  0.1732124874126286  0.4279146484946129
  0.6324269927817012  0.2376636502272051  0.3000369231250736
  0.6002014098697134  0.2064451158110805  0.4279146484946129
  0.6022155124178715  0.2708962786256571  0.3000369231250736
  0.5699899295073813  0.2396777442095325  0.4279146484946129
  0.5720040320555394  0.3041289070241091  0.3000369231250736
  0.5397784491459139  0.2729103726097137  0.4279146484946129
  0.5417925516932075  0.3373615354225610  0.3000369231250736
  0.5095669687835820  0.3061430010081657  0.4279146484946129
  0.5115810713317401  0.3705941638227422  0.3000369231250736
  0.4793554884197523  0.3393756294066176  0.4279146484946129
  0.4813695909679105  0.4038267922211943  0.3000369231250736
  0.4491440080574202  0.3726082578050696  0.4279146484946129
  0.4511581106055784  0.4370594206196462  0.3000369231250736
  0.4189325276950882  0.4058408862035215  0.4279146484946129
  0.4209466302432464  0.4702920490180981  0.3000369231250736
  0.3887210473336209  0.4390735146037029  0.4279146484946129
  0.3907351498809143  0.5035246774165500  0.3000369231250736
  0.3585095669697912  0.4723061430021548  0.4279146484946129
  0.3605236695194470  0.5367573058167314  0.3000369231250736
  0.3282980866074591  0.5055387714006067  0.4279146484946129
  0.3303121891556173  0.5699899342151833  0.3000369231250736
  0.2980866062451272  0.5387713997990587  0.4279146484946129
  0.3001007087932854  0.6032225626136353  0.3000369231250736
  0.2678751258827951  0.5720040281975106  0.4279146484946129
  0.2698892284309534  0.6364551910120873  0.3000369231250736
  0.2376636455198301  0.6052366565976919  0.4279146484946129
  0.2396777480686213  0.6696878194105391  0.3000369231250736
  0.2074521651574981  0.6384692849961439  0.4279146484946129
  0.2094662677056564  0.7029204478107205  0.3000369231250736
  0.1772406847951661  0.6717019133945957  0.4279146484946129
  0.1792547873433243  0.7361530762091725  0.3000369231250736
  0.1470292044328341  0.7049345417930477  0.4279146484946129
  0.1490433069809922  0.7693857046076243  0.3000369231250736
  0.1168177240690045  0.7381671701914998  0.4279146484946129
  0.1188318266186603  0.8026183330060763  0.3000369231250736
  0.0866062437075371  0.7713997985916810  0.4279146484946129
  0.0886203462548306  0.8358509614045283  0.3000369231250736
  0.0563947633452051  0.8046324269901329  0.4279146484946129
  0.0584088658933632  0.8690835898047095  0.3000369231250736
  0.0261832829828730  0.8378650553885848  0.4279146484946129
  0.0281973855310312  0.9023162182031615  0.3000369231250736
  0.9959718026205409  0.8710976837870368  0.4279146484946129
  0.9073514640810701  0.0352467317986984  0.3000369231250736
  0.8751258811690823  0.0040281973825738  0.4279146484946129
  0.8771399837172404  0.0684793601971504  0.3000369231250736
  0.8449144008067503  0.0372608257810258  0.4279146484946129
  0.8469285033549084  0.1017119885956023  0.3000369231250736
  0.8147029204444183  0.0704934541794777  0.4279146484946129
  0.8167170229925764  0.1349446169940543  0.3000369231250736
  0.7844914400805886  0.1037260825779297  0.4279146484946129
  0.7865055426302444  0.1681772453925063  0.3000369231250736
  0.7542799597191212  0.1369587109781109  0.4279146484946129
  0.7562940622672794  0.2014098737926875  0.3000369231250736
  0.7240684793567893  0.1701913393765629  0.4279146484946129
  0.7260825819049475  0.2346425021911395  0.3000369231250736
  0.6938569989944572  0.2034239677750148  0.4279146484946129
  0.6958711015426153  0.2678751305895914  0.3000369231250736
  0.6636455186321252  0.2366565961734668  0.4279146484946129
  0.6656596211802833  0.3011077589880434  0.3000369231250736
  0.6334340382682956  0.2698892245719187  0.4279146484946129
  0.6354481408164537  0.3343403873864953  0.3000369231250736
  0.6032225579068281  0.3031218529721000  0.4279146484946129
  0.6052366604549864  0.3675730157866766  0.3000369231250736
  0.5730110775444961  0.3363544813705520  0.4279146484946129
  0.5750251800926542  0.4008056441851285  0.3000369231250736
  0.5427995971821641  0.3695871097690039  0.4279146484946129
  0.5448136997303223  0.4340382725835805  0.3000369231250736
  0.5125881168183344  0.4028197381674558  0.4279146484946129
  0.5146022193664926  0.4672709009820324  0.3000369231250736
  0.4823766364560024  0.4360523665659078  0.4279146484946129
  0.4843907390041606  0.5005035293804844  0.3000369231250736
  0.4521651560945351  0.4692849949660891  0.4279146484946129
  0.4541792586426932  0.5337361577806656  0.3000369231250736
  0.4219536757322031  0.5025176233645411  0.4279146484946129
  0.4239677782803613  0.5669687861791176  0.3000369231250736
  0.3917421953683734  0.5357502517629930  0.4279146484946129
  0.3937562979180292  0.6002014145775695  0.3000369231250736
  0.3615307150060413  0.5689828801614449  0.4279146484946129
  0.3635448175541995  0.6334340429760215  0.3000369231250736
  0.3313192346437093  0.6022155085598968  0.4279146484946129
  0.3333333371918675  0.6666666713744734  0.3000369231250736
  0.3011077542822420  0.6354481369600782  0.4279146484946129
  0.3031218568304002  0.6998992997746547  0.3000369231250736
  0.2708962739184123  0.6686807653585300  0.4279146484946129
  0.2729103764680681  0.7331319281731067  0.3000369231250736
  0.2406847935560803  0.7019133937569820  0.4279146484946129
  0.2426988961042384  0.7663645565715586  0.3000369231250736
  0.2104733131937483  0.7351460221554340  0.4279146484946129
  0.2124874157419065  0.7995971849700105  0.3000369231250736
  0.1802618328314162  0.7683786505538859  0.4279146484946129
  0.1822759353795744  0.8328298133684625  0.3000369231250736
  0.1500503524684513  0.8016112789540673  0.4279146484946129
  0.1520644550181071  0.8660624417686438  0.3000369231250736
  0.1198388721061193  0.8348439073525192  0.4279146484946129
  0.1218529746542775  0.8992950701670958  0.3000369231250736
  0.0896273917437872  0.8680765357509711  0.4279146484946129
  0.0916414942919454  0.9325276985655477  0.3000369231250736
  0.0594159113814552  0.9013091641494231  0.4279146484946129
  0.0614300139296134  0.9657603269639996  0.3000369231250736
  0.0292044310176256  0.9345417925478751  0.4279146484946129
  0.0312185335672814  0.9989929553624516  0.3000369231250736
  0.9989929506561582  0.9677744209480563  0.4279146484946129
  0.9707955728419844  0.0654582121610847  0.3000369231250736
  0.9385699899299965  0.0342396777449601  0.4279146484946129
  0.9405840924796524  0.0986908405595366  0.3000369231250736
  0.9083585095676645  0.0674723061434120  0.4279146484946129
  0.9103726121158227  0.1319234689579886  0.3000369231250736
  0.8781470292053325  0.1007049345418640  0.4279146484946129
  0.8801611317534906  0.1651560973564405  0.3000369231250736
  0.8479355488430005  0.1339375629403159  0.4279146484946129
  0.8499496513911585  0.1983887257548925  0.3000369231250736
  0.8177240684800355  0.1671701913404972  0.4279146484946129
  0.8197381710296912  0.2316213541550738  0.3000369231250736
  0.7875125881177034  0.2004028197389492  0.4279146484946129
  0.7895266906658616  0.2648539825535257  0.3000369231250736
  0.7573011077553714  0.2336354481374011  0.4279146484946129
  0.7593152103035296  0.2980866109519776  0.3000369231250736
  0.7270896273930394  0.2668680765358530  0.4279146484946129
  0.7291037299411975  0.3313192393504296  0.3000369231250736
  0.6968781470307074  0.3001007049343050  0.4279146484946129
  0.6988922495788655  0.3645518677488816  0.3000369231250736
  0.6666666666677423  0.3333333333344862  0.4279146484946129
  0.6686807692159005  0.3977844961490629  0.3000369231250736
  0.6364551863054104  0.3665659617329382  0.4279146484946129
  0.6384692888535686  0.4310171245475148  0.3000369231250736
  0.6062437059430784  0.3997985901313902  0.4279146484946129
  0.6082578084912365  0.4642497529459668  0.3000369231250736
  0.5760322255807463  0.4330312185298421  0.4279146484946129
  0.5780463281289044  0.4974823813444187  0.3000369231250736
  0.5458207452169167  0.4662638469282940  0.4279146484946129
  0.5478348477650749  0.5307150097428707  0.3000369231250736
  0.5156092648554493  0.4994964753284753  0.4279146484946129
  0.5176233674036075  0.5639476381430519  0.3000369231250736
  0.4853977844931172  0.5327291037269273  0.4279146484946129
  0.4874118870412755  0.5971802665415039  0.3000369231250736
  0.4551863041307853  0.5659617321253793  0.4279146484946129
  0.4572004066789434  0.6304128949399558  0.3000369231250736
  0.4249748237669556  0.5991943605238312  0.4279146484946129
  0.4269889263166114  0.6636455233384078  0.3000369231250736
  0.3947633434046235  0.6324269889222831  0.4279146484946129
  0.3967774459527817  0.6968781517368597  0.3000369231250736
  0.3645518630431562  0.6656596173224645  0.4279146484946129
  0.3665659655913144  0.7301107801370410  0.3000369231250736
  0.3343403826808242  0.6988922457209163  0.4279146484946129
  0.3363544852289824  0.7633434085354930  0.3000369231250736
  0.3041289023169945  0.7321248741193683  0.4279146484946129
  0.3061430048666504  0.7965760369339449  0.3000369231250736
  0.2739174219546625  0.7653575025178203  0.4279146484946129
  0.2759315245028207  0.8298086653323968  0.3000369231250736
  0.2437059415923304  0.7985901309162722  0.4279146484946129
  0.2457200441404887  0.8630412937308488  0.3000369231250736
  0.2134944612308632  0.8318227593164536  0.4279146484946129
  0.2155085637790213  0.8962739221310301  0.3000369231250736
  0.1832829808670334  0.8650553877149053  0.4279146484946129
  0.1852970834166893  0.9295065505294821  0.3000369231250736
  0.1530715005047014  0.8982880161133574  0.4279146484946129
  0.1550856030528597  0.9627391789279340  0.3000369231250736
  0.1228600201423694  0.9315206445118094  0.4279146484946129
  0.1248741226905276  0.9959718073263859  0.3000369231250736
  0.0926485397809020  0.9647532729119905  0.4279146484946129
  0.0946626423266979  0.0292044357248377  0.3000369231250736
  0.0624370594185700  0.9979859013104425  0.4279146484946129
  0.9738167208782345  0.1621349493203748  0.3000369231250736
  0.9415911379662466  0.1309164149042502  0.4279146484946129
  0.9436052405144048  0.1953675777188268  0.3000369231250736
  0.9113796576047792  0.1641490433044315  0.4279146484946129
  0.9133937601529374  0.2286002061190081  0.3000369231250736
  0.8811681772424473  0.1973816717028835  0.4279146484946129
  0.8831822797906055  0.2618328345174600  0.3000369231250736
  0.8509566968801153  0.2306143001013354  0.4279146484946129
  0.8529707994282735  0.2950654629159120  0.3000369231250736
  0.8207452165162856  0.2638469284997874  0.4279146484946129
  0.8227593190644438  0.3282980913143639  0.3000369231250736
  0.7905337361539536  0.2970795568982393  0.4279146484946129
  0.7925478387021118  0.3615307197128159  0.3000369231250736
  0.7603222557924862  0.3303121852984206  0.4279146484946129
  0.7623363583406444  0.3947633481129971  0.3000369231250736
  0.7301107754301542  0.3635448136968725  0.4279146484946129
  0.7321248779783124  0.4279959765114491  0.3000369231250736
  0.6998992950663245  0.3967774420953245  0.4279146484946129
  0.7019133976144827  0.4612286049099010  0.3000369231250736
  0.6696878147039925  0.4300100704937764  0.4279146484946129
  0.6717019172521507  0.4944612333083530  0.3000369231250736
  0.6394763343416605  0.4632426988922284  0.4279146484946129
  0.6414904368898188  0.5276938617068050  0.3000369231250736
  0.6092648539801933  0.4964753272924097  0.4279146484946129
  0.6112789565283513  0.5609264901069861  0.3000369231250736
  0.5790533736163634  0.5297079556908616  0.4279146484946129
  0.5810674761660193  0.5941591185054382  0.3000369231250736
  0.5488418932540314  0.5629405840893135  0.4279146484946129
  0.5508559958021897  0.6273917469038902  0.3000369231250736
  0.5186304128916994  0.5961732124877654  0.4279146484946129
  0.5206445154398577  0.6606243753023421  0.3000369231250736
  0.4884189325293674  0.6294058408862175  0.4279146484946129
  0.4904330350775256  0.6938570037007941  0.3000369231250736
  0.4582074521664024  0.6626384692863987  0.4279146484946129
  0.4602215547160582  0.7270896321009752  0.3000369231250736
  0.4279959718040705  0.6958710976848507  0.4279146484946129
  0.4300100743522285  0.7603222604994272  0.3000369231250736
  0.3977844914417383  0.7291037260833025  0.4279146484946129
  0.3997985939898966  0.7935548888978793  0.3000369231250736
  0.3675730110794063  0.7623363544817545  0.4279146484946129
  0.3695871136275645  0.8267875172963312  0.3000369231250736
  0.3373615307155767  0.7955689828802065  0.4279146484946129
  0.3393756332652326  0.8600201456947831  0.3000369231250736
  0.3071500503541093  0.8288016112803878  0.4279146484946129
  0.3091641529022675  0.8932527740949643  0.3000369231250736
  0.2769385699917774  0.8620342396788397  0.4279146484946129
  0.2789526725399354  0.9264854024934163  0.3000369231250736
  0.2467270896294453  0.8952668680772916  0.4279146484946129
  0.2487411921776035  0.9597180308918682  0.3000369231250736
  0.2165156092656156  0.9284994964757436  0.4279146484946129
  0.2185297118152714  0.9929506592903201  0.3000369231250736
  0.1863041289032836  0.9617321248741956  0.4279146484946129
  0.1883182314514417  0.0261832876887720  0.3000369231250736
  0.1560926485418163  0.9949647532743768  0.4279146484946129
  0.9768378689138516  0.2588116864813944  0.3000369231250736
  0.9446122860033616  0.2275931520652697  0.4279146484946129
  0.9466263885515196  0.2920443148798463  0.3000369231250736
  0.9144008056410294  0.2608257804637216  0.4279146484946129
  0.9164149081891876  0.3252769432782983  0.3000369231250736
  0.8841893252786974  0.2940584088621735  0.4279146484946129
  0.8862034278268557  0.3585095716767502  0.3000369231250736
  0.8539778449148677  0.3272910372606256  0.4279146484946129
  0.8559919474630259  0.3917422000752021  0.3000369231250736
  0.8237663645534005  0.3605236656608068  0.4279146484946129
  0.8257804671015585  0.4249748284753834  0.3000369231250736
  0.7935548841910685  0.3937562940592588  0.4279146484946129
  0.7955689867392266  0.4582074568738354  0.3000369231250736
  0.7633434038287364  0.4269889224577107  0.4279146484946129
  0.7653575063768946  0.4914400852722873  0.3000369231250736
  0.7331319234649067  0.4602215508561627  0.4279146484946129
  0.7351460260130649  0.5246727136707392  0.3000369231250736
  0.7029204431025747  0.4934541792546146  0.4279146484946129
  0.7049345456507329  0.5579053420691912  0.3000369231250736
  0.6727089627411074  0.5266868076547959  0.4279146484946129
  0.6747230652892655  0.5911379704693724  0.3000369231250736
  0.6424974823787754  0.5599194360532479  0.4279146484946129
  0.6445115849269334  0.6243705988678244  0.3000369231250736
  0.6122860020149457  0.5931520644516998  0.4279146484946129
  0.6143001045646015  0.6576032272662764  0.3000369231250736
  0.5820745216526136  0.6263846928501517  0.4279146484946129
  0.5840886242007718  0.6908358556647283  0.3000369231250736
  0.5518630412902817  0.6596173212486037  0.4279146484946129
  0.5538771438384399  0.7240684840631803  0.3000369231250736
  0.5216515609288144  0.6928499496487850  0.4279146484946129
  0.5236656634769725  0.7573011124633615  0.3000369231250736
  0.4914400805649847  0.7260825780472370  0.4279146484946129
  0.4934541831146404  0.7905337408618135  0.3000369231250736
  0.4612286002026526  0.7593152064456888  0.4279146484946129
  0.4632427027508108  0.8237663692602655  0.3000369231250736
  0.4310171198403206  0.7925478348441408  0.4279146484946129
  0.4330312223884787  0.8569989976587173  0.3000369231250736
  0.4008056394779885  0.8257804632425928  0.4279146484946129
  0.4028197420261467  0.8902316260571693  0.3000369231250736
  0.3705941591150236  0.8590130916427741  0.4279146484946129
  0.3726082616646794  0.9234642544573506  0.3000369231250736
  0.3403826787526916  0.8922457200412260  0.4279146484946129
  0.3423967813008497  0.9566968828558026  0.3000369231250736
  0.3101711983903594  0.9254783484396779  0.4279146484946129
  0.3121853009385177  0.9899295112542545  0.3000369231250736
  0.2799597180280275  0.9587109768381299  0.4279146484946129
  0.2819738205746880  0.0231621396527063  0.3000369231250736
  0.2497482376641978  0.9919436052365819  0.4279146484946129
  0.9798590169501019  0.3554884236406845  0.3000369231250736
  0.9476334340396116  0.3242698892245598  0.4279146484946129
  0.9496475365877698  0.3887210520391364  0.3000369231250736
  0.9174219536781443  0.3575025176247411  0.4279146484946129
  0.9194360562254378  0.4219536804375884  0.3000369231250736
  0.8872104733143147  0.3907351460231930  0.4279146484946129
  0.8892245758624728  0.4551863088377697  0.3000369231250736
  0.8569989929519826  0.4239677744216450  0.4279146484946129
  0.8590130955001408  0.4884189372362217  0.3000369231250736
  0.8267875125896506  0.4572004028200969  0.4279146484946129
  0.8288016151378087  0.5216515656346735  0.3000369231250736
  0.7965760322273187  0.4904330312185489  0.4279146484946129
  0.7985901347754768  0.5548841940331255  0.3000369231250736
  0.7663645518643535  0.5236656596187301  0.4279146484946129
  0.7683786544116471  0.5881168224315775  0.3000369231250736
  0.7361530715020216  0.5568982880171822  0.4279146484946129
  0.7381671740501797  0.6213494508317587  0.3000369231250736
  0.7059415911396896  0.5901309164156341  0.4279146484946129
  0.7079556936878477  0.6545820792302107  0.3000369231250736
  0.6757301107773576  0.6233635448140861  0.4279146484946129
  0.6777442133255157  0.6878147076286627  0.3000369231250736
  0.6455186304135279  0.6565961732125380  0.4279146484946129
  0.6475327329631836  0.7210473360271146  0.3000369231250736
  0.6153071500520605  0.6898288016127192  0.4279146484946129
  0.6173212525993540  0.7542799644255666  0.3000369231250736
  0.5850956696897285  0.7230614300111712  0.4279146484946129
  0.5871097722378866  0.7875125928257478  0.3000369231250736
  0.5548841893273965  0.7562940584096233  0.4279146484946129
  0.5568982918755546  0.8207452212241998  0.3000369231250736
  0.5246727089635669  0.7895266868080751  0.4279146484946129
  0.5266868115132227  0.8539778496226518  0.3000369231250736
  0.4944612286012348  0.8227593152065271  0.4279146484946129
  0.4964753311493930  0.8872104780211036  0.3000369231250736
  0.4642497482397674  0.8559919436067083  0.4279146484946129
  0.4662638507870610  0.9204431064195556  0.3000369231250736
  0.4340382678774354  0.8892245720051603  0.4279146484946129
  0.4360523704255936  0.9536757348197369  0.3000369231250736
  0.4038267875136057  0.9224572004036122  0.4279146484946129
  0.4058408900632616  0.9869083632181889  0.3000369231250736
  0.3736153071512737  0.9556898288020641  0.4279146484946129
  0.3756294096994318  0.0201409916166407  0.3000369231250736
  0.3434038267889418  0.9889224572005162  0.4279146484946129
  0.9828801649872168  0.4521651608017040  0.3000369231250736
  0.9506545820767265  0.4209466263855793  0.4279146484946129
  0.9526686846248846  0.4853977892001559  0.3000369231250736
  0.9204431017128968  0.4541792547840313  0.4279146484946129
  0.9224572042610549  0.5186304175986078  0.3000369231250736
  0.8902316213505649  0.4874118831824832  0.4279146484946129
  0.8922457238987229  0.5518630459970598  0.3000369231250736
  0.8600201409882328  0.5206445115809352  0.4279146484946129
  0.8620342435363909  0.5850956743955118  0.3000369231250736
  0.8298086606267654  0.5538771399811164  0.4279146484946129
  0.8318227631749235  0.6183283027956930  0.3000369231250736
  0.7995971802629358  0.5871097683795684  0.4279146484946129
  0.8016112828125915  0.6515609311941449  0.3000369231250736
  0.7693856999006037  0.6203423967780203  0.4279146484946129
  0.7713998024487619  0.6847935595925970  0.3000369231250736
  0.7391742195382717  0.6535750251764723  0.4279146484946129
  0.7411883220864298  0.7180261879910488  0.3000369231250736
  0.7089627391759398  0.6868076535749242  0.4279146484946129
  0.7109768417240979  0.7512588163895009  0.3000369231250736
  0.6787512588129747  0.7200402819751055  0.4279146484946129
  0.6807653613626305  0.7844914447896821  0.3000369231250736
  0.6485397784506426  0.7532729103735575  0.4279146484946129
  0.6505538809988008  0.8177240731881340  0.3000369231250736
  0.6183282980883107  0.7865055387720095  0.4279146484946129
  0.6203424006364688  0.8509567015865860  0.3000369231250736
  0.5881168177259786  0.8197381671704613  0.4279146484946129
  0.5901309202741368  0.8841893299850381  0.3000369231250736
  0.5579053373621490  0.8529707955689133  0.4279146484946129
  0.5599194399118047  0.9174219583834898  0.3000369231250736
  0.5276938570006816  0.8862034239690946  0.4279146484946129
  0.5297079595488399  0.9506545867836712  0.3000369231250736
  0.4974823766383496  0.9194360523675466  0.4279146484946129
  0.4994964791865077  0.9838872151821231  0.3000369231250736
  0.4672708962760176  0.9526686807659985  0.4279146484946129
  0.4692849988226780  0.0171198435805750  0.3000369231250736
  0.4370594159121879  0.9859013091644504  0.4279146484946129
  0.9859013130234668  0.5488418979609941  0.3000369231250736
  0.9536757301114790  0.5176233635448695  0.4279146484946129
  0.9556898326596371  0.5820745263594460  0.3000369231250736
  0.9234642497500116  0.5508559919450507  0.4279146484946129
  0.9254783522973051  0.6153071547578980  0.3000369231250736
  0.8932527693876796  0.5840886203435027  0.4279146484946129
  0.8952668719358378  0.6485397831580793  0.3000369231250736
  0.8630412890253476  0.6173212487419547  0.4279146484946129
  0.8650553915735057  0.6817724115565312  0.3000369231250736
  0.8328298086615179  0.6505538771404066  0.4279146484946129
  0.8348439112111737  0.7150050399549832  0.3000369231250736
  0.8026183282991859  0.6837865055388586  0.4279146484946129
  0.8046324308473441  0.7482376683534351  0.3000369231250736
  0.7724068479377185  0.7170191339390398  0.4279146484946129
  0.7744209504850120  0.7814702967518871  0.3000369231250736
  0.7421953675753865  0.7502517623374918  0.4279146484946129
  0.7442094701235447  0.8147029251520683  0.3000369231250736
  0.7119838872115570  0.7834843907359438  0.4279146484946129
  0.7139979897612128  0.8479355535505203  0.3000369231250736
  0.6817724068492248  0.8167170191343956  0.4279146484946129
  0.6837865093973831  0.8811681819489723  0.3000369231250736
  0.6515609264868928  0.8499496475328476  0.4279146484946129
  0.6535750290350509  0.9144008103474242  0.3000369231250736
  0.6213494461254255  0.8831822759330290  0.4279146484946129
  0.6233635486727190  0.9476334387458761  0.3000369231250736
  0.5911379657615958  0.9164149043314809  0.4279146484946129
  0.5931520683112517  0.9808660671460575  0.3000369231250736
  0.5609264853992638  0.9496475327299329  0.4279146484946129
  0.5629405879474220  0.0140986955445093  0.3000369231250736
  0.5307150050369319  0.9828801611283848  0.4279146484946129
  0.9889224610590840  0.6455186351220137  0.3000369231250736
  0.9566968781485938  0.6143001007058889  0.4279146484946129
  0.9587109806967520  0.6787512635204656  0.3000369231250736
  0.9264853977862618  0.6475327291043410  0.4279146484946129
  0.9284995003344200  0.7119838919189175  0.3000369231250736
  0.8962739174239298  0.6807653575027929  0.4279146484946129
  0.8982880199720881  0.7452165203173695  0.3000369231250736
  0.8660624370601001  0.7139979859012449  0.4279146484946129
  0.8680765396097559  0.7784491487158214  0.3000369231250736
  0.8358509566986327  0.7472306143014260  0.4279146484946129
  0.8378650592467910  0.8116817771160028  0.3000369231250736
  0.8056394763363007  0.7804632426998780  0.4279146484946129
  0.8076535788844590  0.8449144055144546  0.3000369231250736
  0.7754279959739687  0.8136958710983300  0.4279146484946129
  0.7774420985221270  0.8781470339129066  0.3000369231250736
  0.7452165156101390  0.8469284994967818  0.4279146484946129
  0.7472306181597950  0.9113796623113586  0.3000369231250736
  0.7150050352478071  0.8801611278952339  0.4279146484946129
  0.7170191377959653  0.9446122907098105  0.3000369231250736
  0.6847935548863398  0.9133937562954152  0.4279146484946129
  0.6868076574344979  0.9778449191099917  0.3000369231250736
  0.6545820745240076  0.9466263846938671  0.4279146484946129
  0.6565961770706682  0.0110775475084436  0.3000369231250736
  0.6243705941601780  0.9798590130923190  0.4279146484946129
  0.9919436090953341  0.7421953722813037  0.3000369231250736
  0.9597180261848440  0.7109768378651791  0.4279146484946129
  0.9617321287330021  0.7754280006797557  0.3000369231250736
  0.9295065458233767  0.7442094662653604  0.4279146484946129
  0.9315206483706701  0.8086606290782076  0.3000369231250736
  0.8992950654595470  0.7774420946638123  0.4279146484946129
  0.9013091680092027  0.8418932574783889  0.3000369231250736
  0.8690835850972151  0.8106747230622643  0.4279146484946129
  0.8710976876453731  0.8751258858768408  0.3000369231250736
  0.8388721047348829  0.8439073514607163  0.4279146484946129
  0.8408862072830411  0.9083585142752928  0.3000369231250736
  0.8086606243725509  0.8771399798591681  0.4279146484946129
  0.8106747269207092  0.9415911426737448  0.3000369231250736
  0.7784491440095860  0.9103726082593495  0.4279146484946129
  0.7804632465583771  0.9748237710721966  0.3000369231250736
  0.7482376636472539  0.9436052366578014  0.4279146484946129
  0.7502517661954120  0.0080563994723779  0.3000369231250736
  0.7180261832849220  0.9768378650562534  0.4279146484946129
  0.9949647571324490  0.8388721094423233  0.3000369231250736
  0.9627391742219589  0.8076535750261986  0.4279146484946129
  0.9647532767701171  0.8721047378407752  0.3000369231250736
  0.9325276938581292  0.8408862034246506  0.4279146484946129
  0.9345417964077849  0.9053373662392271  0.3000369231250736
  0.9023162134957973  0.8741188318231026  0.4279146484946129
  0.9043303160439554  0.9385699946376791  0.3000369231250736
  0.8721047331334651  0.9073514602215544  0.4279146484946129
  0.8741188356816233  0.9718026230361311  0.3000369231250736
  0.8418932527719979  0.9405840886217358  0.4279146484946129
  0.8439073553177937  0.0050352514345829  0.3000369231250736
  0.8116817724081681  0.9738167170201877  0.4279146484946129
  0.9979859051686991  0.9355488466016134  0.3000369231250736
  0.9657603222567113  0.9043303121854888  0.4279146484946129
  0.9677744248063672  0.9687814750000654  0.3000369231250736
  0.9355488418952440  0.9375629405856700  0.4279146484946129
  0.9375629444425374  0.0020141033985172  0.3000369231250736
  0.9053373615329120  0.9707955689841220  0.4279146484946129
  0.0312185305872767  0.0322255724614756  0.5720852783072417
  0.9989929506552063  0.0312185297071650  0.6999631091587295
  0.1278952677482718  0.0352467204975413  0.5720852783072417
  0.0956696878147037  0.0342396777432307  0.6999631091587295
  0.0946626393486036  0.0654582008599275  0.5720852783072417
  0.0624370594173979  0.0644511581073463  0.6999631091587295
  0.0614300109504331  0.0956696812223138  0.5720852783072417
  0.0292044310177297  0.0946626384697326  0.6999631091587295
  0.2245720049077692  0.0382678685336070  0.5720852783072417
  0.1923464249765635  0.0372608257810258  0.6999631091587295
  0.1913393765081010  0.0684793488959932  0.5720852783072417
  0.1591137965768953  0.0674723061434120  0.6999631091587295
  0.1581067481099305  0.0986908292583795  0.5720852783072417
  0.1258811681787248  0.0976837865057983  0.6999631091587295
  0.1248741197117600  0.1289023096207658  0.5720852783072417
  0.0926485397790566  0.1278952668681845  0.6999631091587295
  0.0916414913120919  0.1591137899831520  0.5720852783072417
  0.0594159113808861  0.1581067472305708  0.6999631091587295
  0.0584088629147860  0.1893252703472676  0.5720852783072417
  0.0261832829812180  0.1883182275929570  0.6999631091587295
  0.3212487420672666  0.0412890165696727  0.5720852783072417
  0.2890231621360609  0.0402819738170914  0.6999631091587295
  0.2880161136690961  0.0715004969320589  0.5720852783072417
  0.2557905337363928  0.0704934541794777  0.6999631091587295
  0.2547834852694280  0.1017119772944452  0.5720852783072417
  0.2225579053382222  0.1007049345418640  0.6999631091587295
  0.2215508568712574  0.1319234576568314  0.5720852783072417
  0.1893252769400517  0.1309164149042502  0.6999631091587295
  0.1883182284724540  0.1621349380209470  0.5720852783072417
  0.1560926485403836  0.1611278952666365  0.6999631091587295
  0.1550856000742834  0.1923464183833333  0.5720852783072417
  0.1228600201422130  0.1913393756290227  0.6999631091587295
  0.1218529716761130  0.2225578987457195  0.5720852783072417
  0.0896273917425449  0.2215508559914090  0.6999631091587295
  0.0886203432764448  0.2527693791081058  0.5720852783072417
  0.0563947633443744  0.2517623363537952  0.6999631091587295
  0.0553877148782743  0.2829808594704921  0.5720852783072417
  0.0231621349447063  0.2819738167161815  0.6999631091587295
  0.4179254792282617  0.0443101646057384  0.5720852783072417
  0.3856998992955583  0.0433031218531571  0.6999631091587295
  0.3846928508285936  0.0745216449681246  0.5720852783072417
  0.3524672708973878  0.0735146022155434  0.6999631091587295
  0.3514602224312877  0.1047331253322402  0.5720852783072417
  0.3192346424977196  0.1037260825779297  0.6999631091587295
  0.3182275940316195  0.1349446056946265  0.5720852783072417
  0.2860020140995492  0.1339375629403159  0.6999631091587295
  0.2849949656334490  0.1651560860570127  0.5720852783072417
  0.2527693856998810  0.1641490433027022  0.6999631091587295
  0.2517623372337809  0.1953675664193990  0.5720852783072417
  0.2195367573017105  0.1943605236650884  0.6999631091587295
  0.2185297088356104  0.2255790467817852  0.5720852783072417
  0.1863041289035400  0.2245720040274747  0.6999631091587295
  0.1852970804359422  0.2557905271441715  0.5720852783072417
  0.1530715005038718  0.2547834843898609  0.6999631091587295
  0.1520644520377717  0.2860020075065577  0.5720852783072417
  0.1198388721065660  0.2849949647539765  0.6999631091587295
  0.1188318236396012  0.3162134878689440  0.5720852783072417
  0.0866062437068978  0.3152064451163628  0.6999631091587295
  0.0855991952399330  0.3464249682313302  0.5720852783072417
  0.0533736153087273  0.3454179254787491  0.6999631091587295
  0.0523665668417626  0.3766364485937165  0.5720852783072417
  0.0201409869090592  0.3756294058411353  0.6999631091587295
  0.5146022163877592  0.0473313126418041  0.5720852783072417
  0.4823766364565533  0.0463242698892228  0.6999631091587295
  0.4813695879904533  0.0775427930059196  0.5720852783072417
  0.4491440080568853  0.0765357502516091  0.6999631091587295
  0.4481369595907851  0.1077542733683059  0.5720852783072417
  0.4159113796587147  0.1067472306139954  0.6999631091587295
  0.4149043311926146  0.1379657537306921  0.5720852783072417
  0.3826787512590465  0.1369587109763816  0.6999631091587295
  0.3816717027929464  0.1681772340930784  0.5720852783072417
  0.3494461228608761  0.1671701913387679  0.6999631091587295
  0.3484390743947759  0.1983887144554647  0.5720852783072417
  0.3162134944612079  0.1973816717011541  0.6999631091587295
  0.3152064459951078  0.2286001948178509  0.5720852783072417
  0.2829808660630375  0.2275931520635404  0.6999631091587295
  0.2819738175969373  0.2588116751802372  0.5720852783072417
  0.2497482376642339  0.2578046324276559  0.6999631091587295
  0.2487411891972692  0.2890231555426235  0.5720852783072417
  0.2165156092660634  0.2880161127900422  0.6999631091587295
  0.2155085607990987  0.3192346359050097  0.5720852783072417
  0.1832829808678929  0.3182275931524284  0.6999631091587295
  0.1822759323994305  0.3494461162673960  0.5720852783072417
  0.1500503524682247  0.3484390735148147  0.6999631091587295
  0.1490433040012600  0.3796575966297822  0.5720852783072417
  0.1168177240700543  0.3786505538772010  0.6999631091587295
  0.1158106756039541  0.4098690769938978  0.5720852783072417
  0.0835850956703861  0.4088620342395872  0.6999631091587295
  0.0825780472042860  0.4400805573562840  0.5720852783072417
  0.0503524672722156  0.4390735146019735  0.6999631091587295
  0.0493454188061155  0.4702920377186703  0.5720852783072417
  0.0171198388725475  0.4692849949643598  0.6999631091587295
  0.6112789535481212  0.0503524606795991  0.5720852783072417
  0.5790533736160508  0.0493454179252885  0.6999631091587295
  0.5780463251499507  0.0805639410419853  0.5720852783072417
  0.5458207452178803  0.0795568982876748  0.6999631091587295
  0.5448136967517803  0.1107754214043716  0.5720852783072417
  0.5125881168182123  0.1097683786500610  0.6999631091587295
  0.5115810683521119  0.1409869017667578  0.5720852783072417
  0.4793554884200417  0.1399798590124473  0.6999631091587295
  0.4783484399539415  0.1711983821291441  0.5720852783072417
  0.4461228600203735  0.1701913393748336  0.6999631091587295
  0.4451158115542734  0.2014098624915304  0.5720852783072417
  0.4128902316222030  0.2004028197372198  0.6999631091587295
  0.4118831831561028  0.2316213428539166  0.5720852783072417
  0.3796576032233995  0.2306143001013354  0.6999631091587295
  0.3786505547564347  0.2618328232163029  0.5720852783072417
  0.3464249748252290  0.2608257804637216  0.6999631091587295
  0.3454179263582642  0.2920443035786891  0.5720852783072417
  0.3131923464255609  0.2910372608261079  0.6999631091587295
  0.3121852979585961  0.3222557839410754  0.5720852783072417
  0.2799597180273903  0.3212487411884942  0.6999631091587295
  0.2789526695604255  0.3524672643034616  0.5720852783072417
  0.2467270896277222  0.3514602215508804  0.6999631091587295
  0.2457200411616220  0.3826787446675772  0.5720852783072417
  0.2134944612295517  0.3816717019132667  0.6999631091587295
  0.2124874127634516  0.4128902250299635  0.5720852783072417
  0.1802618328313812  0.4118831822756530  0.6999631091587295
  0.1792547843652811  0.4431017053923497  0.5720852783072417
  0.1470292044317130  0.4420946626380391  0.6999631091587295
  0.1460221559656129  0.4733131857547360  0.5720852783072417
  0.1137965760335425  0.4723061430004254  0.6999631091587295
  0.1127895275674424  0.5035246661171222  0.5720852783072417
  0.0805639476338744  0.5025176233628117  0.6999631091587295
  0.0795568991677742  0.5337361464795085  0.5720852783072417
  0.0473313192357039  0.5327291037251980  0.6999631091587295
  0.0463242707696037  0.5639476268418947  0.5720852783072417
  0.0140986908369003  0.5629405840893135  0.6999631091587295
  0.7079556907091163  0.0533736087156648  0.5720852783072417
  0.6757301107755482  0.0523665659613542  0.6999631091587295
  0.6747230623094481  0.0835850890780510  0.5720852783072417
  0.6424974823773778  0.0825780463237405  0.6999631091587295
  0.6414904339112776  0.1137965694404373  0.5720852783072417
  0.6092648539777096  0.1127895266861267  0.6999631091587295
  0.6082578055116095  0.1440080498028235  0.5720852783072417
  0.5760322255795390  0.1430010070485130  0.6999631091587295
  0.5750251771134390  0.1742195301652098  0.5720852783072417
  0.5427995971813686  0.1732124874108993  0.6999631091587295
  0.5417925487152685  0.2044310105275960  0.5720852783072417
  0.5095669687825650  0.2034239677750148  0.6999631091587295
  0.5085599203156003  0.2346424908899823  0.5720852783072417
  0.4763343403843945  0.2336354481374011  0.6999631091587295
  0.4753272919174297  0.2648539712523685  0.5720852783072417
  0.4431017119847264  0.2638469284997874  0.6999631091587295
  0.4420946635177617  0.2950654516147548  0.5720852783072417
  0.4098690835865559  0.2940584088621735  0.6999631091587295
  0.4088620351195911  0.3252769319771411  0.5720852783072417
  0.3766364551868878  0.3242698892245598  0.6999631091587295
  0.3756294067207877  0.3554884123412567  0.5720852783072417
  0.3434038267887172  0.3544813695869461  0.6999631091587295
  0.3423967783226171  0.3856998927036429  0.5720852783072417
  0.3101711983890491  0.3846928499493323  0.6999631091587295
  0.3091641499229490  0.4159113730660292  0.5720852783072417
  0.2769385699908786  0.4149043303117186  0.6999631091587295
  0.2759315215247785  0.4461228534284155  0.5720852783072417
  0.2437059415912105  0.4451158106741049  0.6999631091587295
  0.2426988931251103  0.4763343337908016  0.5720852783072417
  0.2104733131930399  0.4753272910364911  0.6999631091587295
  0.2094662647269398  0.5065458141531879  0.5720852783072417
  0.1772406847948694  0.5055387713988774  0.6999631091587295
  0.1762336363287693  0.5367572945155742  0.5720852783072417
  0.1440080563960659  0.5357502517629930  0.6999631091587295
  0.1430010079291012  0.5669687748779605  0.5720852783072417
  0.1107754279978955  0.5659617321253793  0.6999631091587295
  0.1097683795309306  0.5971802552403467  0.5720852783072417
  0.0775427995982273  0.5961732124877654  0.6999631091587295
  0.0765357511312625  0.6273917356027330  0.5720852783072417
  0.0443101712000568  0.6263846928501517  0.6999631091587295
  0.0433031227330921  0.6576032159651193  0.5720852783072417
  0.0110775428003887  0.6565961732125380  0.6999631091587295
  0.8046324278686137  0.0563947567517305  0.5720852783072417
  0.7724068479365432  0.0553877139974199  0.6999631091587295
  0.7713997994704432  0.0866062371141167  0.5720852783072417
  0.7391742195368751  0.0855991943598062  0.6999631091587295
  0.7381671710707750  0.1168177174765030  0.5720852783072417
  0.7059415911387047  0.1158106747221924  0.6999631091587295
  0.7049345426726046  0.1470291978388892  0.5720852783072417
  0.6727089627390365  0.1460221550845787  0.6999631091587295
  0.6717019142729364  0.1772406782012755  0.5720852783072417
  0.6394763343417306  0.1762336354486943  0.6999631091587295
  0.6384692858747658  0.2074521585636618  0.5720852783072417
  0.6062437059420626  0.2064451158110805  0.6999631091587295
  0.6052366574750978  0.2376636389260480  0.5720852783072417
  0.5730110775438920  0.2366565961734668  0.6999631091587295
  0.5720040290769273  0.2678751192884343  0.5720852783072417
  0.5397784491457215  0.2668680765358530  0.6999631091587295
  0.5387714006787567  0.2980865996508205  0.5720852783072417
  0.5065458207460533  0.2970795568982393  0.6999631091587295
  0.5055387722799531  0.3282980800149360  0.5720852783072417
  0.4733131923478828  0.3272910372606256  0.6999631091587295
  0.4723061438817828  0.3585095603773223  0.5720852783072417
  0.4400805639482147  0.3575025176230118  0.6999631091587295
  0.4390735154821145  0.3887210407397086  0.5720852783072417
  0.4068479355500442  0.3877139979853981  0.6999631091587295
  0.4058408870839441  0.4189325211020948  0.5720852783072417
  0.3736153071503760  0.4179254783477843  0.6999631091587295
  0.3726082586842759  0.4491440014644811  0.5720852783072417
  0.3403826787522055  0.4481369587101706  0.6999631091587295
  0.3393756302861054  0.4793554818268674  0.5720852783072417
  0.3071500503534020  0.4783484390742861  0.6999631091587295
  0.3061430018864373  0.5095669621892537  0.5720852783072417
  0.2739174219552316  0.5085599194366724  0.6999631091587295
  0.2729103734882667  0.5397784425516399  0.5720852783072417
  0.2406847935555634  0.5387713997990587  0.6999631091587295
  0.2396777450885986  0.5699899229140262  0.5720852783072417
  0.2074521651573929  0.5689828801614449  0.6999631091587295
  0.2064451166904281  0.6002014032764125  0.5720852783072417
  0.1742195367592224  0.5991943605238312  0.6999631091587295
  0.1732124882931222  0.6304128836405279  0.5720852783072417
  0.1409869083595543  0.6294058408862175  0.6999631091587295
  0.1399798598934541  0.6606243640029142  0.5720852783072417
  0.1077542799613837  0.6596173212486037  0.6999631091587295
  0.1067472314952835  0.6908358443653004  0.5720852783072417
  0.0745216515617156  0.6898288016109900  0.6999631091587295
  0.0735146030956154  0.7210473247276867  0.5720852783072417
  0.0412890231635450  0.7200402819733761  0.6999631091587295
  0.0402819746974449  0.7512588050900730  0.5720852783072417
  0.0080563947638768  0.7502517623357624  0.6999631091587295
  0.9013091650296088  0.0594159047877962  0.5720852783072417
  0.8690835850960407  0.0584088620334856  0.6999631091587295
  0.8680765366299407  0.0896273851501824  0.5720852783072417
  0.8358509566978704  0.0886203423958719  0.6999631091587295
  0.8348439082317700  0.1198388655125687  0.5720852783072417
  0.8026183282990668  0.1188318227599875  0.6999631091587295
  0.8016112798321020  0.1500503458749549  0.5720852783072417
  0.7693856999008962  0.1490433031223737  0.6999631091587295
  0.7683786514339315  0.1802618262373412  0.5720852783072417
  0.7361530715012281  0.1792547834847600  0.6999631091587295
  0.7351460230342634  0.2104733065997275  0.5720852783072417
  0.7029204431030577  0.2094662638471462  0.6999631091587295
  0.7019133946360928  0.2406847869621137  0.5720852783072417
  0.6696878147033893  0.2396777442095325  0.6999631091587295
  0.6686807662372893  0.2708962673262293  0.5720852783072417
  0.6364551863052189  0.2698892245719187  0.6999631091587295
  0.6354481378391188  0.3011077476886155  0.5720852783072417
  0.6032225579055507  0.3001007049343050  0.6999631091587295
  0.6022155094394507  0.3313192280510018  0.5720852783072417
  0.5699899295073803  0.3303121852966912  0.6999631091587295
  0.5689828810412801  0.3615307084133881  0.5720852783072417
  0.5367573011092098  0.3605236656590775  0.6999631091587295
  0.5357502526431096  0.3917421887757743  0.5720852783072417
  0.5035246727095415  0.3907351460214638  0.6999631091587295
  0.5025176242434415  0.4219536691381606  0.5720852783072417
  0.4702920443113711  0.4209466263838500  0.6999631091587295
  0.4692849958452709  0.4521651495005468  0.5720852783072417
  0.4370594159125676  0.4511581067479656  0.6999631091587295
  0.4360523674456028  0.4823766298629331  0.5720852783072417
  0.4038267875143971  0.4813695871103518  0.6999631091587295
  0.4028197390474323  0.5125881102253194  0.5720852783072417
  0.3705941591147290  0.5115810674727381  0.6999631091587295
  0.3695871106477642  0.5427995905877055  0.5720852783072417
  0.3373615307165584  0.5417925478351243  0.6999631091587295
  0.3363544822495936  0.5730110709500918  0.5720852783072417
  0.3041289023168903  0.5720040281975106  0.6999631091587295
  0.3031218538507902  0.6032225513142074  0.5720852783072417
  0.2708962739187198  0.6022155085598968  0.6999631091587295
  0.2698892254526197  0.6334340316765936  0.5720852783072417
  0.2376636455190516  0.6324269889222831  0.6999631091587295
  0.2366565970529515  0.6636455120389799  0.5720852783072417
  0.2044310171208811  0.6626384692846693  0.6999631091587295
  0.2034239686547810  0.6938569924013662  0.5720852783072417
  0.1711983887227106  0.6928499496470556  0.6999631091587295
  0.1701913402566105  0.7240684727637524  0.5720852783072417
  0.1379657603230425  0.7230614300094419  0.6999631091587295
  0.1369587118569424  0.7542799531261387  0.5720852783072417
  0.1047331319248719  0.7532729103718281  0.6999631091587295
  0.1037260834587719  0.7844914334885250  0.5720852783072417
  0.0715005035260685  0.7834843907359438  0.6999631091587295
  0.0704934550591037  0.8147029138509112  0.5720852783072417
  0.0382678751278979  0.8136958710983300  0.6999631091587295
  0.0372608266609332  0.8449143942132975  0.5720852783072417
  0.0050352467282298  0.8439073514607163  0.6999631091587295
  0.9979859021891062  0.0624370528238618  0.5720852783072417
  0.9657603222570358  0.0614300100695513  0.6999631091587295
  0.9647532737894379  0.0926485331862481  0.5720852783072417
  0.9325276938582323  0.0916414904336669  0.6999631091587295
  0.9315206453912676  0.1228600135486344  0.5720852783072417
  0.8992950654600619  0.1218529707960531  0.6999631091587295
  0.8982880169930971  0.1530714939110206  0.5720852783072417
  0.8660624370603937  0.1520644511584394  0.6999631091587295
  0.8650553885934289  0.1832829742734069  0.5720852783072417
  0.8328298086622231  0.1822759315208256  0.6999631091587295
  0.8318227601952584  0.2134944546357931  0.5720852783072417
  0.7995971802625550  0.2124874118832119  0.6999631091587295
  0.7985901317964549  0.2437059349999087  0.5720852783072417
  0.7663645518643846  0.2426988922455982  0.6999631091587295
  0.7653575033982845  0.2739174153622950  0.5720852783072417
  0.7331319234647163  0.2729103726079845  0.6999631091587295
  0.7321248749986162  0.3041288957246812  0.5720852783072417
  0.6998992950665458  0.3031218529703707  0.6999631091587295
  0.6988922466004457  0.3343403760870675  0.5720852783072417
  0.6666666666668777  0.3333333333327569  0.6999631091587295
  0.6656596182007776  0.3645518564494537  0.5720852783072417
  0.6334340382687071  0.3635448136951432  0.6999631091587295
  0.6324269898026071  0.3947633368118400  0.5720852783072417
  0.6002014098705366  0.3937562940575294  0.6999631091587295
  0.5991943614029389  0.4249748171742262  0.5720852783072417
  0.5669687814717332  0.4239677744216450  0.6999631091587295
  0.5659617330047684  0.4551862975366125  0.5720852783072417
  0.5337361530735627  0.4541792547840313  0.6999631091587295
  0.5327291046065979  0.4853977778989988  0.5720852783072417
  0.5005035246738945  0.4843907351464176  0.6999631091587295
  0.4994964762069297  0.5156092582613850  0.5720852783072417
  0.4672708962757240  0.5146022155088038  0.6999631091587295
  0.4662638478087593  0.5458207386237713  0.5720852783072417
  0.4340382678760559  0.5448136958711900  0.6999631091587295
  0.4330312194099557  0.5760322189878868  0.5720852783072417
  0.4008056394778854  0.5750251762335763  0.6999631091587295
  0.3997985910117852  0.6062436993502731  0.5720852783072417
  0.3675730110782173  0.6052366565959626  0.6999631091587295
  0.3665659626121171  0.6364551797126594  0.5720852783072417
  0.3343403826800467  0.6354481369583488  0.6999631091587295
  0.3333333342139466  0.6666666600750456  0.5720852783072417
  0.3011077542803786  0.6656596173207351  0.6999631091587295
  0.3001007058142784  0.6968781404374319  0.5720852783072417
  0.2678751258822081  0.6958710976831214  0.6999631091587295
  0.2668680774161080  0.7270896207998182  0.5720852783072417
  0.2346424974825399  0.7260825780455076  0.6999631091587295
  0.2336354490164398  0.7573011011622044  0.5720852783072417
  0.2014098690852341  0.7562940584096233  0.6999631091587295
  0.2004028206182693  0.7875125815245907  0.5720852783072417
  0.1681772406870636  0.7865055387720095  0.6999631091587295
  0.1671701922200988  0.8177240618869770  0.5720852783072417
  0.1349446122873954  0.8167170191343956  0.6999631091587295
  0.1339375638204306  0.8479355422493632  0.5720852783072417
  0.1017119838892249  0.8469284994967818  0.6999631091587295
  0.1007049354222601  0.8781470226117494  0.5720852783072417
  0.0684793554895567  0.8771399798591681  0.6999631091587295
  0.0674723070234566  0.9083585029758650  0.5720852783072417
  0.0352467270913862  0.9073514602215544  0.6999631091587295
  0.0342396786252861  0.9385699833382513  0.5720852783072417
  0.0020140986917181  0.9375629405839406  0.6999631091587295
  0.0281973825507650  0.1258811615847001  0.5720852783072417
  0.9959718026195591  0.1248741188321188  0.6999631091587295
  0.9949647541525946  0.1560926419470863  0.5720852783072417
  0.9627391742213887  0.1550855991945051  0.6999631091587295
  0.9617321257529262  0.1863041223094726  0.5720852783072417
  0.9295065458217207  0.1852970795568913  0.6999631091587295
  0.9284994973556204  0.2165156026735881  0.5720852783072417
  0.8962739174235501  0.2155085599192776  0.6999631091587295
  0.8952668689574499  0.2467270830359744  0.5720852783072417
  0.8630412890238820  0.2457200402816639  0.6999631091587295
  0.8620342405577818  0.2769385633983606  0.5720852783072417
  0.8298086606257113  0.2759315206440501  0.6999631091587295
  0.8288016121596113  0.3071500437607469  0.5720852783072417
  0.7965760322260433  0.3061430010064364  0.6999631091587295
  0.7955689837599431  0.3373615241231332  0.5720852783072417
  0.7633434038278728  0.3363544813688226  0.6999631091587295
  0.7623363553617727  0.3675730044855194  0.5720852783072417
  0.7301107754282046  0.3665659617312089  0.6999631091587295
  0.7291037269621046  0.3977844848479057  0.5720852783072417
  0.6968781470308987  0.3967774420953245  0.6999631091587295
  0.6958710985639339  0.4279959652102919  0.5720852783072417
  0.6636455186312306  0.4269889224577107  0.6999631091587295
  0.6626384701642658  0.4582074455726782  0.5720852783072417
  0.6304128902330601  0.4572004028200969  0.6999631091587295
  0.6294058417660953  0.4884189259350644  0.5720852783072417
  0.5971802618348897  0.4874118831824832  0.6999631091587295
  0.5961732133664273  0.5186304062974507  0.5720852783072417
  0.5639476334352215  0.5176233635448695  0.6999631091587295
  0.5629405849691212  0.5488418866615663  0.5720852783072417
  0.5307150050370509  0.5478348439072558  0.6999631091587295
  0.5297079565709509  0.5790533670239526  0.5720852783072417
  0.4974823766373827  0.5780463242696420  0.6999631091587295
  0.4964753281712827  0.6092648473863389  0.5720852783072417
  0.4642497482392123  0.6082578046320283  0.6999631091587295
  0.4632426997731122  0.6394763277487251  0.5720852783072417
  0.4310171198395442  0.6384692849944146  0.6999631091587295
  0.4300100713734440  0.6696878081111114  0.5720852783072417
  0.3977844914413736  0.6686807653568008  0.6999631091587295
  0.3967774429752735  0.6998992884734976  0.5720852783072417
  0.3645518630417055  0.6988922457191871  0.6999631091587295
  0.3635448145756053  0.7301107688358838  0.5720852783072417
  0.3313192346443996  0.7291037260833025  0.6999631091587295
  0.3303121861774349  0.7603222491982701  0.5720852783072417
  0.2980866062447314  0.7593152064456888  0.6999631091587295
  0.2970795577777666  0.7905337295606563  0.5720852783072417
  0.2648539778465610  0.7895266868080751  0.6999631091587295
  0.2638469293795962  0.8207452099230426  0.5720852783072417
  0.2316213494468928  0.8197381671704613  0.6999631091587295
  0.2306143009799280  0.8509566902854289  0.5720852783072417
  0.1983887210487223  0.8499496475328476  0.6999631091587295
  0.1973816725826222  0.8811681706495444  0.5720852783072417
  0.1651560926505519  0.8801611278952339  0.6999631091587295
  0.1641490441844517  0.9113796510119307  0.5720852783072417
  0.1319234642508836  0.9103726082576201  0.6999631091587295
  0.1309164157847836  0.9415911313743169  0.5720852783072417
  0.0986908358527132  0.9405840886200064  0.6999631091587295
  0.0976837873866131  0.9718026117367032  0.5720852783072417
  0.0654582074530450  0.9707955689823927  0.6999631091587295
  0.0644511589869448  0.0020140920990893  0.5720852783072417
  0.0322255790533768  0.0010070493447788  0.6999631091587295
  0.0251762345151179  0.2195367507096538  0.5720852783072417
  0.9929506545830474  0.2185297079553433  0.6999631091587295
  0.9919436061169474  0.2497482310720401  0.5720852783072417
  0.9597180261848770  0.2487411883177296  0.6999631091587295
  0.9587109777172793  0.2799597114344263  0.5720852783072417
  0.9264853977852088  0.2789526686801158  0.6999631091587295
  0.9254783493191088  0.3101711917968126  0.5720852783072417
  0.8932527693870385  0.3091641490425021  0.6999631091587295
  0.8922457209209381  0.3403826721591989  0.5720852783072417
  0.8600201409873702  0.3393756294048884  0.6999631091587295
  0.8590130925212701  0.3705941525215851  0.5720852783072417
  0.8267875125900643  0.3695871097690039  0.6999631091587295
  0.8257804641230996  0.4008056328839714  0.5720852783072417
  0.7935548841903962  0.3997985901313902  0.6999631091587295
  0.7925478357234315  0.4310171132463577  0.5720852783072417
  0.7603222557922258  0.4300100704937764  0.6999631091587295
  0.7593152073252609  0.4612285936087439  0.5720852783072417
  0.7270896273925576  0.4602215508561627  0.6999631091587295
  0.7260825789255928  0.4914400739711302  0.5720852783072417
  0.6938569989943870  0.4904330312185489  0.6999631091587295
  0.6928499505282869  0.5216515543352457  0.5720852783072417
  0.6606243705947189  0.5206445115809352  0.6999631091587295
  0.6596173221286188  0.5518630346976320  0.5720852783072417
  0.6273917421965484  0.5508559919433215  0.6999631091587295
  0.6263846937304482  0.5820745150600182  0.5720852783072417
  0.5941591137983779  0.5810674723057078  0.6999631091587295
  0.5931520653307800  0.6122859954224045  0.5720852783072417
  0.5609264853987097  0.6112789526680940  0.6999631091587295
  0.5599194369326096  0.6424974757847908  0.5720852783072417
  0.5276938570005392  0.6414904330304801  0.6999631091587295
  0.5266868085344391  0.6727089561471770  0.5720852783072417
  0.4944612286008710  0.6717019133928664  0.6999631091587295
  0.4934541801347709  0.7029204365095633  0.5720852783072417
  0.4612286002035652  0.7019133937569820  0.6999631091587295
  0.4602215517366004  0.7331319168719495  0.5720852783072417
  0.4279959718038971  0.7321248741193683  0.6999631091587295
  0.4269889233369323  0.7633433972343358  0.5720852783072417
  0.3947633434057265  0.7623363544817545  0.6999631091587295
  0.3937562949387617  0.7935548775967221  0.5720852783072417
  0.3615307150060584  0.7925478348441408  0.6999631091587295
  0.3605236665390936  0.8237663579591082  0.5720852783072417
  0.3282980866078880  0.8227593152065271  0.6999631091587295
  0.3272910381417878  0.8539778383232239  0.5720852783072417
  0.2950654582082197  0.8529707955689133  0.6999631091587295
  0.2940584097421196  0.8841893186856101  0.5720852783072417
  0.2618328298100493  0.8831822759312996  0.6999631091587295
  0.2608257813439491  0.9144007990479964  0.5720852783072417
  0.2286002014103811  0.9133937562936859  0.6999631091587295
  0.2275931529442810  0.9446122794103827  0.5720852783072417
  0.1953675730122106  0.9436052366560721  0.6999631091587295
  0.1943605245461104  0.9748237597727688  0.5720852783072417
  0.1621349446140401  0.9738167170184584  0.6999631091587295
  0.1611278961464423  0.0050352401351550  0.5720852783072417
  0.1289023162143719  0.0040281973808445  0.6999631091587295
  0.0221550864786061  0.3131923398328783  0.5720852783072417
  0.9899295065465358  0.3121852970785677  0.6999631091587295
  0.9889224580804356  0.3434038201952646  0.5720852783072417
  0.9566968781492300  0.3423967774426833  0.6999631091587295
  0.9556898296807675  0.3736153005576509  0.5720852783072417
  0.9234642497495618  0.3726082578050696  0.6999631091587295
  0.9224572012825970  0.4038267809200370  0.5720852783072417
  0.8902316213513911  0.4028197381674558  0.6999631091587295
  0.8892245728844264  0.4340382612824233  0.5720852783072417
  0.8569989929517231  0.4330312185298421  0.6999631091587295
  0.8559919444847583  0.4642497416448096  0.5720852783072417
  0.8237663645535526  0.4632426988922284  0.6999631091587295
  0.8227593160874526  0.4944612220089252  0.5720852783072417
  0.7905337361538844  0.4934541792546146  0.6999631091587295
  0.7895266876877844  0.5246727023713115  0.5720852783072417
  0.7573011077557139  0.5236656596170008  0.6999631091587295
  0.7562940592896138  0.5548841827336977  0.5720852783072417
  0.7240684793560458  0.5538771399793870  0.6999631091587295
  0.7230614308899457  0.5850956630960840  0.5720852783072417
  0.6908358509578753  0.5840886203417733  0.6999631091587295
  0.6898288024917751  0.6153071434584702  0.5720852783072417
  0.6576032225582071  0.6143001007041596  0.6999631091587295
  0.6565961740921070  0.6455186238208565  0.5720852783072417
  0.6243705941609013  0.6445115810682752  0.6999631091587295
  0.6233635456939366  0.6757301041832428  0.5720852783072417
  0.5911379657627308  0.6747230614306615  0.6999631091587295
  0.5901309172942684  0.7059415845456289  0.5720852783072417
  0.5579053373630626  0.7049345417930477  0.6999631091587295
  0.5568982888960978  0.7361530649080152  0.5720852783072417
  0.5246727089648922  0.7351460221554340  0.6999631091587295
  0.5236656604979274  0.7663645452704015  0.5720852783072417
  0.4914400805652240  0.7653575025178203  0.6999631091587295
  0.4904330320991239  0.7965760256345171  0.5720852783072417
  0.4582074521670534  0.7955689828802065  0.6999631091587295
  0.4572004037009533  0.8267875059969032  0.5720852783072417
  0.4249748237673853  0.8257804632425928  0.6999631091587295
  0.4239677753012852  0.8569989863592895  0.5720852783072417
  0.3917421953692148  0.8559919436049791  0.6999631091587295
  0.3907351469031147  0.8872104667216758  0.5720852783072417
  0.3585095669695467  0.8862034239673653  0.6999631091587295
  0.3575025185034466  0.9174219470840620  0.5720852783072417
  0.3252769385713762  0.9164149043297515  0.6999631091587295
  0.3242698901052760  0.9476334274464483  0.5720852783072417
  0.2920443101717080  0.9466263846921378  0.6999631091587295
  0.2910372617056079  0.9778449078088346  0.5720852783072417
  0.2588116817744022  0.9768378650562534  0.6999631091587295
  0.2578046333059397  0.0080563881712207  0.5720852783072417
  0.2255790533738693  0.0070493454169102  0.6999631091587295
  0.0191339384420944  0.4068479289561028  0.5720852783072417
  0.9869083585108887  0.4058408862035215  0.6999631091587295
  0.9859013100447886  0.4370594093202184  0.5720852783072417
  0.9536757301127182  0.4360523665659078  0.6999631091587295
  0.9526686816451205  0.4672708896826046  0.5720852783072417
  0.9204431017130501  0.4662638469282940  0.6999631091587295
  0.9194360532469499  0.4974823700449909  0.5720852783072417
  0.8872104733148795  0.4964753272906803  0.6999631091587295
  0.8862034248487795  0.5276938504073772  0.5720852783072417
  0.8539778449152113  0.5266868076530665  0.6999631091587295
  0.8529707964491112  0.5579053307697633  0.5720852783072417
  0.8207452165170409  0.5568982880154528  0.6999631091587295
  0.8197381680509407  0.5881168111321496  0.5720852783072417
  0.7875125881173728  0.5871097683778391  0.6999631091587295
  0.7865055396512727  0.6183282914945359  0.5720852783072417
  0.7542799597200668  0.6173212487419547  0.6999631091587295
  0.7532729112531020  0.6485397718569221  0.5720852783072417
  0.7210473313203988  0.6475327291043410  0.6999631091587295
  0.7200402828534339  0.6787512522193084  0.5720852783072417
  0.6878147029222282  0.6777442094667272  0.6999631091587295
  0.6868076544552635  0.7089627325816947  0.5720852783072417
  0.6545820745225601  0.7079556898291135  0.6999631091587295
  0.6535750260555954  0.7391742129440809  0.5720852783072417
  0.6213494461243897  0.7381671701914998  0.6999631091587295
  0.6203423976582894  0.7693856933081965  0.5720852783072417
  0.5881168177262190  0.7683786505538859  0.6999631091587295
  0.5871097692586212  0.7995971736705827  0.5720852783072417
  0.5548841893265508  0.7985901309162722  0.6999631091587295
  0.5538771408604508  0.8298086540329690  0.5720852783072417
  0.5216515609283804  0.8288016112786584  0.6999631091587295
  0.5206445124622804  0.8600201343953553  0.5720852783072417
  0.4884189325287123  0.8590130916410447  0.6999631091587295
  0.4874118840626121  0.8902316147577415  0.5720852783072417
  0.4551863041305417  0.8892245720034310  0.6999631091587295
  0.4541792556644416  0.9204430951201278  0.5720852783072417
  0.4219536757308736  0.9194360523658172  0.6999631091587295
  0.4209466272647735  0.9506545754825141  0.5720852783072417
  0.3887210473335678  0.9496475327299329  0.6999631091587295
  0.3877139988666030  0.9808660558449003  0.5720852783072417
  0.3554884189338996  0.9798590130923190  0.6999631091587295
  0.3544813704669348  0.0110775362072864  0.5720852783072417
  0.3222557905342314  0.0100704934547052  0.6999631091587295
  0.0161127904064473  0.5005035180810565  0.5720852783072417
  0.9838872104743770  0.4994964753267460  0.6999631091587295
  0.9828801620082768  0.5307149984434428  0.5720852783072417
  0.9506545820762065  0.5297079556891323  0.6999631091587295
  0.9496475336086088  0.5609264788058291  0.5720852783072417
  0.9174219536765383  0.5599194360515185  0.6999631091587295
  0.9164149052104382  0.5911379591682153  0.5720852783072417
  0.8841893252792324  0.5901309164156341  0.6999631091587295
  0.8831822768122677  0.6213494395306016  0.5720852783072417
  0.8509566968795642  0.6203423967780203  0.6999631091587295
  0.8499496484125995  0.6515609198929878  0.5720852783072417
  0.8177240684813939  0.6505538771404066  0.6999631091587295
  0.8167170200144290  0.6817724002553740  0.5720852783072417
  0.7844914400817257  0.6807653575027929  0.6999631091587295
  0.7834843916147609  0.7119838806177603  0.5720852783072417
  0.7512588116835550  0.7109768378651791  0.6999631091587295
  0.7502517632174550  0.7421953609818759  0.5720852783072417
  0.7180261832838870  0.7411883182275654  0.6999631091587295
  0.7170191348177869  0.7724068413442622  0.5720852783072417
  0.6847935548857165  0.7713997985899517  0.6999631091587295
  0.6837865064196165  0.8026183217066485  0.5720852783072417
  0.6515609264860484  0.8016112789523379  0.6999631091587295
  0.6505538780199482  0.8328298020690347  0.5720852783072417
  0.6183282980878778  0.8318227593147242  0.6999631091587295
  0.6173212496217777  0.8630412824314210  0.5720852783072417
  0.5850956696897073  0.8620342396771103  0.6999631091587295
  0.5840886212221096  0.8932527627938073  0.5720852783072417
  0.5518630412900392  0.8922457200394966  0.6999631091587295
  0.5508559928239390  0.9234642431561935  0.5720852783072417
  0.5186304128927334  0.9224572004036122  0.6999631091587295
  0.5176233644257686  0.9536757235185798  0.5720852783072417
  0.4853977844930652  0.9526686807659985  0.6999631091587295
  0.4843907360261004  0.9838872038809661  0.5720852783072417
  0.4521651560948947  0.9828801611283848  0.6999631091587295
  0.4511581076264322  0.0140986842433521  0.5720852783072417
  0.4189325276952265  0.0130916414907709  0.6999631091587295
  0.0130916423699356  0.5941591072042810  0.5720852783072417
  0.9808660624387299  0.5931520644516998  0.6999631091587295
  0.9798590139717651  0.6243705875666672  0.5720852783072417
  0.9476334340405593  0.6233635448140861  0.6999631091587295
  0.9466263855720969  0.6545820679290535  0.5720852783072417
  0.9144008056408912  0.6535750251764723  0.6999631091587295
  0.9133937571739263  0.6847935482914398  0.5720852783072417
  0.8811681772427207  0.6837865055388586  0.6999631091587295
  0.8801611287766207  0.7150050286555554  0.5720852783072417
  0.8479355488430526  0.7139979859012449  0.6999631091587295
  0.8469285003769526  0.7452165090179417  0.5720852783072417
  0.8147029204448821  0.7442094662636310  0.6999631091587295
  0.8136958719787819  0.7754279893803279  0.5720852783072417
  0.7814702920452139  0.7744209466260173  0.6999631091587295
  0.7804632435791138  0.8056394697427142  0.5720852783072417
  0.7482376636470434  0.8046324269884036  0.6999631091587295
  0.7472306151809434  0.8358509501051005  0.5720852783072417
  0.7150050352473752  0.8348439073507898  0.6999631091587295
  0.7139979867812751  0.8660624304674867  0.5720852783072417
  0.6817724068492048  0.8650553877131761  0.6999631091587295
  0.6807653583831047  0.8962739108298730  0.5720852783072417
  0.6485397784504012  0.8952668680772916  0.6999631091587295
  0.6475327299834365  0.9264853911922591  0.5720852783072417
  0.6153071500522307  0.9254783484396779  0.6999631091587295
  0.6143001015852659  0.9566968715546453  0.5720852783072417
  0.5820745216540602  0.9556898288020641  0.6999631091587295
  0.5810674731855978  0.9869083519170316  0.5720852783072417
  0.5488418932543920  0.9859013091644504  0.6999631091587295
  0.5478348447874273  0.0171198322794178  0.5720852783072417
  0.5156092648547239  0.0161127895268366  0.6999631091587295
  0.0100704943342885  0.6878146963292349  0.5720852783072417
  0.9778449144022182  0.6868076535749242  0.6999631091587295
  0.9768378659361181  0.7180261766916212  0.5720852783072417
  0.9446122860040476  0.7170191339373105  0.6999631091587295
  0.9436052375364499  0.7482376570540074  0.5720852783072417
  0.9113796576043796  0.7472306142996968  0.6999631091587295
  0.9103726091382793  0.7784491374163935  0.5720852783072417
  0.8781470292062090  0.7774420946620830  0.6999631091587295
  0.8771399807401088  0.8086606177787797  0.5720852783072417
  0.8449144008065409  0.8076535750244693  0.6999631091587295
  0.8439073523404408  0.8388720981411660  0.5720852783072417
  0.8116817724083704  0.8378650553868556  0.6999631091587295
  0.8106747239422701  0.8690835785035523  0.5720852783072417
  0.7784491440095668  0.8680765357509711  0.6999631091587295
  0.7774420955426020  0.8992950588659385  0.5720852783072417
  0.7452165156113963  0.8982880161133574  0.6999631091587295
  0.7442094671444315  0.9295065392283248  0.5720852783072417
  0.7119838872117281  0.9284994964757436  0.6999631091587295
  0.7109768387447635  0.9597180195907111  0.5720852783072417
  0.6787512588135577  0.9587109768381299  0.6999631091587295
  0.6777442103465929  0.9899294999530973  0.5720852783072417
  0.6455186304138896  0.9889224572005162  0.6999631091587295
  0.6445115819469247  0.0201409803154835  0.5720852783072417
  0.6122860020142212  0.0191339375629023  0.6999631091587295
  0.0070493462977768  0.7814702854524592  0.5720852783072417
  0.9748237663657066  0.7804632426981487  0.6999631091587295
  0.9738167178996062  0.8116817658148455  0.5720852783072417
  0.9415911379684005  0.8106747230622643  0.6999631091587295
  0.9405840894999381  0.8418932461772318  0.5720852783072417
  0.9083585095687324  0.8408862034246506  0.6999631091587295
  0.9073514611017676  0.8721047265396180  0.5720852783072417
  0.8751258811705619  0.8710976837870368  0.6999631091587295
  0.8741188327035972  0.9023162069020043  0.5720852783072417
  0.8418932527708938  0.9013091641494231  0.6999631091587295
  0.8408862043039290  0.9325276872643905  0.5720852783072417
  0.8086606243727232  0.9315206445118094  0.6999631091587295
  0.8076535759066232  0.9627391676285062  0.5720852783072417
  0.7754279959730551  0.9617321248741956  0.6999631091587295
  0.7744209475069550  0.9929506479908924  0.5720852783072417
  0.7421953675748846  0.9919436052365819  0.6999631091587295
  0.7411883191072868  0.0231621283532785  0.5720852783072417
  0.7089627391752163  0.0221550855989680  0.6999631091587295
  0.0040281982612651  0.8751258745756838  0.5720852783072417
  0.9718026183300593  0.8741188318231026  0.6999631091587295
  0.9707955698630946  0.9053373549380700  0.5720852783072417
  0.9385699899318889  0.9043303121854888  0.6999631091587295
  0.9375629414657887  0.9355488353021855  0.5720852783072417
  0.9053373615322207  0.9345417925478751  0.6999631091587295
  0.9043303130661206  0.9657603156645718  0.5720852783072417
  0.8721047331340502  0.9647532729102613  0.6999631091587295
  0.8710976846679500  0.9959717960269581  0.5720852783072417
  0.8388721047343820  0.9949647532726474  0.6999631091587295
  0.8378650562682819  0.0261832763893442  0.5720852783072417
  0.8056394763347139  0.0251762336350337  0.6999631091587295
  0.0010070502256180  0.9687814637006376  0.5720852783072417
  0.9687814702935474  0.9677744209463269  0.6999631091587295
  0.9677744218274474  0.9989929440630237  0.5720852783072417
  0.9355488418953771  0.9979859013087132  0.6999631091587295
  0.9345417934277793  0.0292044244254099  0.5720852783072417
  0.9023162134957089  0.0281973816710994  0.6999631091587295
