Te Mo
 1.0000000000000000
    39.7113764531222557    0.0000000000000000    0.0000000000000000
   -19.8556882265611279   34.3910608276510459    0.0000000000000000
     0.0000000000000000    0.0000000000000000   35.0205229050731077
 Te  Mo 
 762 381
Direct
  0.0971068778830007  0.9422606674242219  0.1844362135594365
  0.1994690826074102  0.9895047619124108  0.1844362135594365
  0.1443509723711898  0.8871425571880013  0.1844362135594365
  0.2467131770955992  0.9343866516761902  0.1844362135594365
  0.3490753818200085  0.9816307461643791  0.1844362135594365
  0.0892328621349691  0.7847803524635918  0.1844362135594365
  0.1915950668593786  0.8320244469517807  0.1844362135594365
  0.2939572715837881  0.8792685414399698  0.1844362135594365
  0.3963194763081974  0.9265126359281587  0.1844362135594365
  0.4986816810326069  0.9737567304163477  0.1844362135594365
  0.1364769566231580  0.7296622422273713  0.1844362135594365
  0.2388391613475675  0.7769063367155602  0.1844362135594365
  0.3412013660719770  0.8241504312037493  0.1844362135594365
  0.4435635707963863  0.8713945256919382  0.1844362135594365
  0.5459257755207960  0.9186386201801272  0.1844362135594365
  0.6482879802452053  0.9658827146683161  0.1844362135594365
  0.0813588463869377  0.6273000375029618  0.1844362135594365
  0.1837210511113471  0.6745441319911507  0.1844362135594365
  0.2860832558357567  0.7217882264793398  0.1844362135594365
  0.3884454605601659  0.7690323209675288  0.1844362135594365
  0.4908076652845754  0.8162764154557177  0.1844362135594365
  0.5931698700089849  0.8635205099439067  0.1844362135594365
  0.6955320747333942  0.9107646044320957  0.1844362135594365
  0.7978942794578038  0.9580086989202846  0.1844362135594365
  0.1286029408751265  0.5721819272667412  0.1844362135594365
  0.2309651455995361  0.6194260217549303  0.1844362135594365
  0.3333273503239455  0.6666701162431193  0.1844362135594365
  0.4356895550483550  0.7139142107313083  0.1844362135594365
  0.5380517597727645  0.7611583052194972  0.1844362135594365
  0.6404139644971738  0.8084023997076862  0.1844362135594365
  0.7427761692215832  0.8556464941958751  0.1844362135594365
  0.8451383739459927  0.9028905886840642  0.1844362135594365
  0.9475005786704022  0.9501346831722532  0.1844362135594365
  0.0734848306389062  0.4698197225423319  0.1844362135594365
  0.1758470353633157  0.5170638170305208  0.1844362135594365
  0.2782092400877251  0.5643079115187098  0.1844362135594365
  0.3805714448121345  0.6115520060068989  0.1844362135594365
  0.4829336495365439  0.6587961004950879  0.1844362135594365
  0.5852958542609534  0.7060401949832767  0.1844362135594365
  0.6876580589853627  0.7532842894714656  0.1844362135594365
  0.7900202637097722  0.8005283839596548  0.1844362135594365
  0.8923824684341816  0.8477724784478438  0.1844362135594365
  0.9947446731585912  0.8950165729360328  0.1844362135594365
  0.1207289251270951  0.4147016123061114  0.1844362135594365
  0.2230911298515046  0.4619457067943005  0.1844362135594365
  0.3254533345759141  0.5091898012824894  0.1844362135594365
  0.4278155393003233  0.5564338957706784  0.1844362135594365
  0.5301777440247331  0.6036779902588674  0.1844362135594365
  0.6325399487491422  0.6509220847470563  0.1844362135594365
  0.7349021534735515  0.6981661792352452  0.1844362135594365
  0.8372643581979612  0.7454102737234343  0.1844362135594365
  0.9396265629223708  0.7926543682116233  0.1844362135594365
  0.0419887676467803  0.8398984626998123  0.1844362135594365
  0.0656108148908747  0.3123394075817019  0.1844362135594365
  0.1679730196152840  0.3595835020698909  0.1844362135594365
  0.2703352243396937  0.4068275965580799  0.1844362135594365
  0.3726974290641029  0.4540716910462690  0.1844362135594365
  0.4750596337885125  0.5013157855344579  0.1844362135594365
  0.5774218385129218  0.5485598800226469  0.1844362135594365
  0.6797840432373310  0.5958039745108357  0.1844362135594365
  0.7821462479617407  0.6430480689990248  0.1844362135594365
  0.8845084526861501  0.6902921634872137  0.1844362135594365
  0.9868706574105597  0.7375362579754028  0.1844362135594365
  0.1128549093790636  0.2572212973454815  0.1844362135594365
  0.2152171141034731  0.3044653918336704  0.1844362135594365
  0.3175793188278825  0.3517094863218595  0.1844362135594365
  0.4199415235522918  0.3989535808100484  0.1844362135594365
  0.5223037282767015  0.4461976752982375  0.1844362135594365
  0.6246659330011108  0.4934417697864263  0.1844362135594365
  0.7270281377255201  0.5406858642746153  0.1844362135594365
  0.8293903424499297  0.5879299587628043  0.1844362135594365
  0.9317525471743393  0.6351740532509933  0.1844362135594365
  0.0341147518987488  0.6824181477391823  0.1844362135594365
  0.0577367991428432  0.1548590926210720  0.1844362135594365
  0.1600990038672525  0.2021031871092610  0.1844362135594365
  0.2624612085916620  0.2493472815974500  0.1844362135594365
  0.3648234133160715  0.2965913760856390  0.1844362135594365
  0.4671856180404809  0.3438354705738280  0.1844362135594365
  0.5695478227648905  0.3910795650620169  0.1844362135594365
  0.6719100274892997  0.4383236595502060  0.1844362135594365
  0.7742722322137091  0.4855677540383948  0.1844362135594365
  0.8766344369381186  0.5328118485265838  0.1844362135594365
  0.9789966416625282  0.5800559430147728  0.1844362135594365
  0.1049808936310321  0.0997409823848515  0.1844362135594365
  0.2073430983554416  0.1469850768730405  0.1844362135594365
  0.3097053030798511  0.1942291713612295  0.1844362135594365
  0.4120675078042604  0.2414732658494185  0.1844362135594365
  0.5144297125286699  0.2887173603376075  0.1844362135594365
  0.6167919172530794  0.3359614548257965  0.1844362135594365
  0.7191541219774887  0.3832055493139854  0.1844362135594365
  0.8215163267018983  0.4304496438021743  0.1844362135594365
  0.9238785314263076  0.4776937382903633  0.1844362135594365
  0.0262407361507171  0.5249378327785523  0.1844362135594365
  0.1522249881192210  0.0446228721486310  0.1844362135594365
  0.2545871928436305  0.0918669666368200  0.1844362135594365
  0.3569493975680400  0.1391110611250090  0.1844362135594365
  0.4593116022924493  0.1863551556131980  0.1844362135594365
  0.5616738070168589  0.2335992501013870  0.1844362135594365
  0.6640360117412681  0.2808433445895759  0.1844362135594365
  0.7663982164656779  0.3280874390777651  0.1844362135594365
  0.8687604211900872  0.3753315335659539  0.1844362135594365
  0.9711226259144967  0.4225756280541428  0.1844362135594365
  0.3018312873318194  0.0367488564005995  0.1844362135594365
  0.4041934920562289  0.0839929508887885  0.1844362135594365
  0.5065556967806384  0.1312370453769775  0.1844362135594365
  0.6089179015050479  0.1784811398651664  0.1844362135594365
  0.7112801062294574  0.2257252343533556  0.1844362135594365
  0.8136423109538669  0.2729693288415445  0.1844362135594365
  0.9160045156782761  0.3202134233297334  0.1844362135594365
  0.0183667204026856  0.3674575178179225  0.1844362135594365
  0.4514375865444177  0.0288748406525681  0.1844362135594365
  0.5537997912688275  0.0761189351407571  0.1844362135594365
  0.6561619959932367  0.1233630296289461  0.1844362135594365
  0.7585242007176464  0.1706071241171351  0.1844362135594365
  0.8608864054420557  0.2178512186053240  0.1844362135594365
  0.9632486101664651  0.2650953130935130  0.1844362135594365
  0.6010438857570163  0.0210008249045366  0.1844362135594365
  0.7034060904814259  0.0682449193927256  0.1844362135594365
  0.8057682952058354  0.1154890138809146  0.1844362135594365
  0.9081304999302448  0.1627331083691035  0.1844362135594365
  0.0104927046546541  0.2099772028572925  0.1844362135594365
  0.7506501849696147  0.0131268091565051  0.1844362135594365
  0.8530123896940243  0.0603709036446941  0.1844362135594365
  0.9553745944184336  0.1076149981328830  0.1844362135594365
  0.9002564841822133  0.0052527934084736  0.1844362135594365
  0.0026186889066226  0.0524968878966625  0.1844362135594365
  0.0498627833948117  0.9973787776604421  0.1844362135594365
  0.0971068778830007  0.9422606674242219  0.2866406310006595
  0.1994690826074102  0.9895047619124108  0.2866406310006595
  0.1443509723711898  0.8871425571880013  0.2866406310006595
  0.2467131770955992  0.9343866516761902  0.2866406310006595
  0.3490753818200085  0.9816307461643791  0.2866406310006595
  0.0892328621349691  0.7847803524635918  0.2866406310006595
  0.1915950668593786  0.8320244469517807  0.2866406310006595
  0.2939572715837881  0.8792685414399698  0.2866406310006595
  0.3963194763081974  0.9265126359281587  0.2866406310006595
  0.4986816810326069  0.9737567304163477  0.2866406310006595
  0.1364769566231580  0.7296622422273713  0.2866406310006595
  0.2388391613475675  0.7769063367155602  0.2866406310006595
  0.3412013660719770  0.8241504312037493  0.2866406310006595
  0.4435635707963863  0.8713945256919382  0.2866406310006595
  0.5459257755207960  0.9186386201801272  0.2866406310006595
  0.6482879802452053  0.9658827146683161  0.2866406310006595
  0.0813588463869377  0.6273000375029618  0.2866406310006595
  0.1837210511113471  0.6745441319911507  0.2866406310006595
  0.2860832558357567  0.7217882264793398  0.2866406310006595
  0.3884454605601659  0.7690323209675288  0.2866406310006595
  0.4908076652845754  0.8162764154557177  0.2866406310006595
  0.5931698700089849  0.8635205099439067  0.2866406310006595
  0.6955320747333942  0.9107646044320957  0.2866406310006595
  0.7978942794578038  0.9580086989202846  0.2866406310006595
  0.1286029408751265  0.5721819272667412  0.2866406310006595
  0.2309651455995361  0.6194260217549303  0.2866406310006595
  0.3333273503239455  0.6666701162431193  0.2866406310006595
  0.4356895550483550  0.7139142107313083  0.2866406310006595
  0.5380517597727645  0.7611583052194972  0.2866406310006595
  0.6404139644971738  0.8084023997076862  0.2866406310006595
  0.7427761692215832  0.8556464941958751  0.2866406310006595
  0.8451383739459927  0.9028905886840642  0.2866406310006595
  0.9475005786704022  0.9501346831722532  0.2866406310006595
  0.0734848306389062  0.4698197225423319  0.2866406310006595
  0.1758470353633157  0.5170638170305208  0.2866406310006595
  0.2782092400877251  0.5643079115187098  0.2866406310006595
  0.3805714448121345  0.6115520060068989  0.2866406310006595
  0.4829336495365439  0.6587961004950879  0.2866406310006595
  0.5852958542609534  0.7060401949832767  0.2866406310006595
  0.6876580589853627  0.7532842894714656  0.2866406310006595
  0.7900202637097722  0.8005283839596548  0.2866406310006595
  0.8923824684341816  0.8477724784478438  0.2866406310006595
  0.9947446731585912  0.8950165729360328  0.2866406310006595
  0.1207289251270951  0.4147016123061114  0.2866406310006595
  0.2230911298515046  0.4619457067943005  0.2866406310006595
  0.3254533345759141  0.5091898012824894  0.2866406310006595
  0.4278155393003233  0.5564338957706784  0.2866406310006595
  0.5301777440247331  0.6036779902588674  0.2866406310006595
  0.6325399487491422  0.6509220847470563  0.2866406310006595
  0.7349021534735515  0.6981661792352452  0.2866406310006595
  0.8372643581979612  0.7454102737234343  0.2866406310006595
  0.9396265629223708  0.7926543682116233  0.2866406310006595
  0.0419887676467803  0.8398984626998123  0.2866406310006595
  0.0656108148908747  0.3123394075817019  0.2866406310006595
  0.1679730196152840  0.3595835020698909  0.2866406310006595
  0.2703352243396937  0.4068275965580799  0.2866406310006595
  0.3726974290641029  0.4540716910462690  0.2866406310006595
  0.4750596337885125  0.5013157855344579  0.2866406310006595
  0.5774218385129218  0.5485598800226469  0.2866406310006595
  0.6797840432373310  0.5958039745108357  0.2866406310006595
  0.7821462479617407  0.6430480689990248  0.2866406310006595
  0.8845084526861501  0.6902921634872137  0.2866406310006595
  0.9868706574105597  0.7375362579754028  0.2866406310006595
  0.1128549093790636  0.2572212973454815  0.2866406310006595
  0.2152171141034731  0.3044653918336704  0.2866406310006595
  0.3175793188278825  0.3517094863218595  0.2866406310006595
  0.4199415235522918  0.3989535808100484  0.2866406310006595
  0.5223037282767015  0.4461976752982375  0.2866406310006595
  0.6246659330011108  0.4934417697864263  0.2866406310006595
  0.7270281377255201  0.5406858642746153  0.2866406310006595
  0.8293903424499297  0.5879299587628043  0.2866406310006595
  0.9317525471743393  0.6351740532509933  0.2866406310006595
  0.0341147518987488  0.6824181477391823  0.2866406310006595
  0.0577367991428432  0.1548590926210720  0.2866406310006595
  0.1600990038672525  0.2021031871092610  0.2866406310006595
  0.2624612085916620  0.2493472815974500  0.2866406310006595
  0.3648234133160715  0.2965913760856390  0.2866406310006595
  0.4671856180404809  0.3438354705738280  0.2866406310006595
  0.5695478227648905  0.3910795650620169  0.2866406310006595
  0.6719100274892997  0.4383236595502060  0.2866406310006595
  0.7742722322137091  0.4855677540383948  0.2866406310006595
  0.8766344369381186  0.5328118485265838  0.2866406310006595
  0.9789966416625282  0.5800559430147728  0.2866406310006595
  0.1049808936310321  0.0997409823848515  0.2866406310006595
  0.2073430983554416  0.1469850768730405  0.2866406310006595
  0.3097053030798511  0.1942291713612295  0.2866406310006595
  0.4120675078042604  0.2414732658494185  0.2866406310006595
  0.5144297125286699  0.2887173603376075  0.2866406310006595
  0.6167919172530794  0.3359614548257965  0.2866406310006595
  0.7191541219774887  0.3832055493139854  0.2866406310006595
  0.8215163267018983  0.4304496438021743  0.2866406310006595
  0.9238785314263076  0.4776937382903633  0.2866406310006595
  0.0262407361507171  0.5249378327785523  0.2866406310006595
  0.1522249881192210  0.0446228721486310  0.2866406310006595
  0.2545871928436305  0.0918669666368200  0.2866406310006595
  0.3569493975680400  0.1391110611250090  0.2866406310006595
  0.4593116022924493  0.1863551556131980  0.2866406310006595
  0.5616738070168589  0.2335992501013870  0.2866406310006595
  0.6640360117412681  0.2808433445895759  0.2866406310006595
  0.7663982164656779  0.3280874390777651  0.2866406310006595
  0.8687604211900872  0.3753315335659539  0.2866406310006595
  0.9711226259144967  0.4225756280541428  0.2866406310006595
  0.3018312873318194  0.0367488564005995  0.2866406310006595
  0.4041934920562289  0.0839929508887885  0.2866406310006595
  0.5065556967806384  0.1312370453769775  0.2866406310006595
  0.6089179015050479  0.1784811398651664  0.2866406310006595
  0.7112801062294574  0.2257252343533556  0.2866406310006595
  0.8136423109538669  0.2729693288415445  0.2866406310006595
  0.9160045156782761  0.3202134233297334  0.2866406310006595
  0.0183667204026856  0.3674575178179225  0.2866406310006595
  0.4514375865444177  0.0288748406525681  0.2866406310006595
  0.5537997912688275  0.0761189351407571  0.2866406310006595
  0.6561619959932367  0.1233630296289461  0.2866406310006595
  0.7585242007176464  0.1706071241171351  0.2866406310006595
  0.8608864054420557  0.2178512186053240  0.2866406310006595
  0.9632486101664651  0.2650953130935130  0.2866406310006595
  0.6010438857570163  0.0210008249045366  0.2866406310006595
  0.7034060904814259  0.0682449193927256  0.2866406310006595
  0.8057682952058354  0.1154890138809146  0.2866406310006595
  0.9081304999302448  0.1627331083691035  0.2866406310006595
  0.0104927046546541  0.2099772028572925  0.2866406310006595
  0.7506501849696147  0.0131268091565051  0.2866406310006595
  0.8530123896940243  0.0603709036446941  0.2866406310006595
  0.9553745944184336  0.1076149981328830  0.2866406310006595
  0.9002564841822133  0.0052527934084736  0.2866406310006595
  0.0026186889066226  0.0524968878966625  0.2866406310006595
  0.0498627833948117  0.9973787776604421  0.2866406310006595
  0.1076171848778175  0.9553985584780140  0.3902982383123794
  0.0603730903896287  0.8530363537536048  0.3902982383123794
  0.1627352951140381  0.9081544639898250  0.3902982383123794
  0.2650974998384475  0.9632725742260457  0.3902982383123794
  0.1154912006258493  0.8057922592654156  0.3902982383123794
  0.2178534053502585  0.8609103695016362  0.3902982383123794
  0.3202156100746680  0.9160284797378566  0.3902982383123794
  0.4225778147990774  0.9711465899740771  0.3902982383123794
  0.0682471061376601  0.7034300545410063  0.3902982383123794
  0.1706093108620697  0.7585481647772268  0.3902982383123794
  0.2729715155864789  0.8136662750134472  0.3902982383123794
  0.3753337203108886  0.8687843852496677  0.3902982383123794
  0.4776959250352979  0.9239024954858881  0.3902982383123794
  0.5800581297597073  0.9790206057221085  0.3902982383123794
  0.1233652163738805  0.6561859600528173  0.3902982383123794
  0.2257274210982900  0.7113040702890379  0.3902982383123794
  0.3280896258226995  0.7664221805252582  0.3902982383123794
  0.4304518305471090  0.8215402907614787  0.3902982383123794
  0.5328140352715184  0.8766584009976992  0.3902982383123794
  0.6351762399959280  0.9317765112339196  0.3902982383123794
  0.7375384447203372  0.9868946214701401  0.3902982383123794
  0.0761211218856916  0.5538237553284079  0.3902982383123794
  0.1784833266101011  0.6089418655646284  0.3902982383123794
  0.2808455313345104  0.6640599758008489  0.3902982383123794
  0.3832077360589201  0.7191780860370693  0.3902982383123794
  0.4855699407833294  0.7742961962732897  0.3902982383123794
  0.5879321455077388  0.8294143065095101  0.3902982383123794
  0.6902943502321484  0.8845324167457305  0.3902982383123794
  0.7926565549565576  0.9396505269819511  0.3902982383123794
  0.8950187596809672  0.9947686372181715  0.3902982383123794
  0.1312392321219122  0.5065796608402189  0.3902982383123794
  0.2336014368463215  0.5616977710764394  0.3902982383123794
  0.3359636415707310  0.6168158813126599  0.3902982383123794
  0.4383258462951404  0.6719339915488802  0.3902982383123794
  0.5406880510195499  0.7270521017851007  0.3902982383123794
  0.6430502557439595  0.7821702120213212  0.3902982383123794
  0.7454124604683687  0.8372883222575416  0.3902982383123794
  0.8477746651927781  0.8924064324937622  0.3902982383123794
  0.9501368699171876  0.9475245427299824  0.3902982383123794
  0.0839951376337231  0.4042174561158093  0.3902982383123794
  0.1863573423581326  0.4593355663520300  0.3902982383123794
  0.2887195470825419  0.5144536765882504  0.3902982383123794
  0.3910817518069515  0.5695717868244708  0.3902982383123794
  0.4934439565313607  0.6246898970606912  0.3902982383123794
  0.5958061612557705  0.6798080072969117  0.3902982383123794
  0.6981683659801797  0.7349261175331323  0.3902982383123794
  0.8005305707045892  0.7900442277693527  0.3902982383123794
  0.9028927754289987  0.8451623380055732  0.3902982383123794
  0.0052549801534081  0.9002804482417937  0.3902982383123794
  0.1391132478699435  0.3569733616276203  0.3902982383123794
  0.2414754525943530  0.4120914718638408  0.3902982383123794
  0.3438376573187628  0.4672095821000614  0.3902982383123794
  0.4461998620431719  0.5223276923362817  0.3902982383123794
  0.5485620667675815  0.5774458025725023  0.3902982383123794
  0.6509242714919908  0.6325639128087228  0.3902982383123794
  0.7532864762164003  0.6876820230449433  0.3902982383123794
  0.8556486809408097  0.7428001332811638  0.3902982383123794
  0.9580108856652191  0.7979182435173842  0.3902982383123794
  0.0918691533817546  0.2546111569032109  0.3902982383123794
  0.1942313581061641  0.3097292671394313  0.3902982383123794
  0.2965935628305734  0.3648473773756518  0.3902982383123794
  0.3989557675549831  0.4199654876118722  0.3902982383123794
  0.5013179722793923  0.4750835978480928  0.3902982383123794
  0.6036801770038021  0.5302017080843133  0.3902982383123794
  0.7060423817282112  0.5853198183205338  0.3902982383123794
  0.8084045864526208  0.6404379285567543  0.3902982383123794
  0.9107667911770302  0.6955560387929748  0.3902982383123794
  0.0131289959014396  0.7506741490291953  0.3902982383123794
  0.1469872636179752  0.2073670624150220  0.3902982383123794
  0.2493494683423844  0.2624851726512423  0.3902982383123794
  0.3517116730667939  0.3176032828874628  0.3902982383123794
  0.4540738777912035  0.3727213931236832  0.3902982383123794
  0.5564360825156127  0.4278395033599037  0.3902982383123794
  0.6587982872400224  0.4829576135961243  0.3902982383123794
  0.7611604919644317  0.5380757238323448  0.3902982383123794
  0.8635226966888412  0.5931938340685654  0.3902982383123794
  0.9658849014132506  0.6483119443047857  0.3902982383123794
  0.0997431691297861  0.1050048576906125  0.3902982383123794
  0.2021053738541956  0.1601229679268330  0.3902982383123794
  0.3044675785786048  0.2152410781630534  0.3902982383123794
  0.4068297833030146  0.2703591883992739  0.3902982383123794
  0.5091919880274238  0.3254772986354943  0.3902982383123794
  0.6115541927518332  0.3805954088717148  0.3902982383123794
  0.7139163974762428  0.4357135191079354  0.3902982383123794
  0.8162786022006523  0.4908316293441559  0.3902982383123794
  0.9186408069250617  0.5459497395803762  0.3902982383123794
  0.0210030116494713  0.6010678498165968  0.3902982383123794
  0.1548612793660067  0.0577607632024235  0.3902982383123794
  0.2572234840904160  0.1128788734386440  0.3902982383123794
  0.3595856888148254  0.1679969836748644  0.3902982383123794
  0.4619478935392349  0.2231150939110849  0.3902982383123794
  0.5643100982636442  0.2782332041473053  0.3902982383123794
  0.6666723029880538  0.3333513143835258  0.3902982383123794
  0.7690345077124633  0.3884694246197463  0.3902982383123794
  0.8713967124368727  0.4435875348559669  0.3902982383123794
  0.9737589171612820  0.4987056450921873  0.3902982383123794
  0.2099793896022270  0.0105166687142346  0.3902982383123794
  0.3123415943266365  0.0656347789504551  0.3902982383123794
  0.4147037990510460  0.1207528891866755  0.3902982383123794
  0.5170660037754552  0.1758709994228960  0.3902982383123794
  0.6194282084998648  0.2309891096591163  0.3902982383123794
  0.7217904132242743  0.2861072198953369  0.3902982383123794
  0.8241526179486838  0.3412253301315573  0.3902982383123794
  0.9265148226730933  0.3963434403677777  0.3902982383123794
  0.0288770273975028  0.4514615506039985  0.3902982383123794
  0.3674597045628569  0.0183906844622661  0.3902982383123794
  0.4698219092872664  0.0735087946984865  0.3902982383123794
  0.5721841140116756  0.1286269049347070  0.3902982383123794
  0.6745463187360853  0.1837450151709273  0.3902982383123794
  0.7769085234604948  0.2388631254071479  0.3902982383123794
  0.8792707281849041  0.2939812356433684  0.3902982383123794
  0.9816329329093136  0.3490993458795889  0.3902982383123794
  0.5249400195234868  0.0262647002102975  0.3902982383123794
  0.6273022242478965  0.0813828104465180  0.3902982383123794
  0.7296644289723057  0.1365009206827384  0.3902982383123794
  0.8320266336967151  0.1916190309189589  0.3902982383123794
  0.9343888384211247  0.2467371411551794  0.3902982383123794
  0.0367510431455340  0.3018552513913999  0.3902982383123794
  0.6824203344841169  0.0341387159583290  0.3902982383123794
  0.7847825392085261  0.0892568261945496  0.3902982383123794
  0.8871447439329356  0.1443749364307700  0.3902982383123794
  0.9895069486573451  0.1994930466669904  0.3902982383123794
  0.8399006494447466  0.0420127317063606  0.3902982383123794
  0.9422628541691562  0.0971308419425810  0.3902982383123794
  0.0446250588935657  0.1522489521788015  0.3902982383123794
  0.9973809644053766  0.0498867474543920  0.3902982383123794
  0.0524990746415972  0.0026426529662031  0.3902982383123794
  0.1076171848778175  0.9553985584780140  0.4925026557536023
  0.0603730903896287  0.8530363537536048  0.4925026557536023
  0.1627352951140381  0.9081544639898250  0.4925026557536023
  0.2650974998384475  0.9632725742260457  0.4925026557536023
  0.1154912006258493  0.8057922592654156  0.4925026557536023
  0.2178534053502585  0.8609103695016362  0.4925026557536023
  0.3202156100746680  0.9160284797378566  0.4925026557536023
  0.4225778147990774  0.9711465899740771  0.4925026557536023
  0.0682471061376601  0.7034300545410063  0.4925026557536023
  0.1706093108620697  0.7585481647772268  0.4925026557536023
  0.2729715155864789  0.8136662750134472  0.4925026557536023
  0.3753337203108886  0.8687843852496677  0.4925026557536023
  0.4776959250352979  0.9239024954858881  0.4925026557536023
  0.5800581297597073  0.9790206057221085  0.4925026557536023
  0.1233652163738805  0.6561859600528173  0.4925026557536023
  0.2257274210982900  0.7113040702890379  0.4925026557536023
  0.3280896258226995  0.7664221805252582  0.4925026557536023
  0.4304518305471090  0.8215402907614787  0.4925026557536023
  0.5328140352715184  0.8766584009976992  0.4925026557536023
  0.6351762399959280  0.9317765112339196  0.4925026557536023
  0.7375384447203372  0.9868946214701401  0.4925026557536023
  0.0761211218856916  0.5538237553284079  0.4925026557536023
  0.1784833266101011  0.6089418655646284  0.4925026557536023
  0.2808455313345104  0.6640599758008489  0.4925026557536023
  0.3832077360589201  0.7191780860370693  0.4925026557536023
  0.4855699407833294  0.7742961962732897  0.4925026557536023
  0.5879321455077388  0.8294143065095101  0.4925026557536023
  0.6902943502321484  0.8845324167457305  0.4925026557536023
  0.7926565549565576  0.9396505269819511  0.4925026557536023
  0.8950187596809672  0.9947686372181715  0.4925026557536023
  0.1312392321219122  0.5065796608402189  0.4925026557536023
  0.2336014368463215  0.5616977710764394  0.4925026557536023
  0.3359636415707310  0.6168158813126599  0.4925026557536023
  0.4383258462951404  0.6719339915488802  0.4925026557536023
  0.5406880510195499  0.7270521017851007  0.4925026557536023
  0.6430502557439595  0.7821702120213212  0.4925026557536023
  0.7454124604683687  0.8372883222575416  0.4925026557536023
  0.8477746651927781  0.8924064324937622  0.4925026557536023
  0.9501368699171876  0.9475245427299824  0.4925026557536023
  0.0839951376337231  0.4042174561158093  0.4925026557536023
  0.1863573423581326  0.4593355663520300  0.4925026557536023
  0.2887195470825419  0.5144536765882504  0.4925026557536023
  0.3910817518069515  0.5695717868244708  0.4925026557536023
  0.4934439565313607  0.6246898970606912  0.4925026557536023
  0.5958061612557705  0.6798080072969117  0.4925026557536023
  0.6981683659801797  0.7349261175331323  0.4925026557536023
  0.8005305707045892  0.7900442277693527  0.4925026557536023
  0.9028927754289987  0.8451623380055732  0.4925026557536023
  0.0052549801534081  0.9002804482417937  0.4925026557536023
  0.1391132478699435  0.3569733616276203  0.4925026557536023
  0.2414754525943530  0.4120914718638408  0.4925026557536023
  0.3438376573187628  0.4672095821000614  0.4925026557536023
  0.4461998620431719  0.5223276923362817  0.4925026557536023
  0.5485620667675815  0.5774458025725023  0.4925026557536023
  0.6509242714919908  0.6325639128087228  0.4925026557536023
  0.7532864762164003  0.6876820230449433  0.4925026557536023
  0.8556486809408097  0.7428001332811638  0.4925026557536023
  0.9580108856652191  0.7979182435173842  0.4925026557536023
  0.0918691533817546  0.2546111569032109  0.4925026557536023
  0.1942313581061641  0.3097292671394313  0.4925026557536023
  0.2965935628305734  0.3648473773756518  0.4925026557536023
  0.3989557675549831  0.4199654876118722  0.4925026557536023
  0.5013179722793923  0.4750835978480928  0.4925026557536023
  0.6036801770038021  0.5302017080843133  0.4925026557536023
  0.7060423817282112  0.5853198183205338  0.4925026557536023
  0.8084045864526208  0.6404379285567543  0.4925026557536023
  0.9107667911770302  0.6955560387929748  0.4925026557536023
  0.0131289959014396  0.7506741490291953  0.4925026557536023
  0.1469872636179752  0.2073670624150220  0.4925026557536023
  0.2493494683423844  0.2624851726512423  0.4925026557536023
  0.3517116730667939  0.3176032828874628  0.4925026557536023
  0.4540738777912035  0.3727213931236832  0.4925026557536023
  0.5564360825156127  0.4278395033599037  0.4925026557536023
  0.6587982872400224  0.4829576135961243  0.4925026557536023
  0.7611604919644317  0.5380757238323448  0.4925026557536023
  0.8635226966888412  0.5931938340685654  0.4925026557536023
  0.9658849014132506  0.6483119443047857  0.4925026557536023
  0.0997431691297861  0.1050048576906125  0.4925026557536023
  0.2021053738541956  0.1601229679268330  0.4925026557536023
  0.3044675785786048  0.2152410781630534  0.4925026557536023
  0.4068297833030146  0.2703591883992739  0.4925026557536023
  0.5091919880274238  0.3254772986354943  0.4925026557536023
  0.6115541927518332  0.3805954088717148  0.4925026557536023
  0.7139163974762428  0.4357135191079354  0.4925026557536023
  0.8162786022006523  0.4908316293441559  0.4925026557536023
  0.9186408069250617  0.5459497395803762  0.4925026557536023
  0.0210030116494713  0.6010678498165968  0.4925026557536023
  0.1548612793660067  0.0577607632024235  0.4925026557536023
  0.2572234840904160  0.1128788734386440  0.4925026557536023
  0.3595856888148254  0.1679969836748644  0.4925026557536023
  0.4619478935392349  0.2231150939110849  0.4925026557536023
  0.5643100982636442  0.2782332041473053  0.4925026557536023
  0.6666723029880538  0.3333513143835258  0.4925026557536023
  0.7690345077124633  0.3884694246197463  0.4925026557536023
  0.8713967124368727  0.4435875348559669  0.4925026557536023
  0.9737589171612820  0.4987056450921873  0.4925026557536023
  0.2099793896022270  0.0105166687142346  0.4925026557536023
  0.3123415943266365  0.0656347789504551  0.4925026557536023
  0.4147037990510460  0.1207528891866755  0.4925026557536023
  0.5170660037754552  0.1758709994228960  0.4925026557536023
  0.6194282084998648  0.2309891096591163  0.4925026557536023
  0.7217904132242743  0.2861072198953369  0.4925026557536023
  0.8241526179486838  0.3412253301315573  0.4925026557536023
  0.9265148226730933  0.3963434403677777  0.4925026557536023
  0.0288770273975028  0.4514615506039985  0.4925026557536023
  0.3674597045628569  0.0183906844622661  0.4925026557536023
  0.4698219092872664  0.0735087946984865  0.4925026557536023
  0.5721841140116756  0.1286269049347070  0.4925026557536023
  0.6745463187360853  0.1837450151709273  0.4925026557536023
  0.7769085234604948  0.2388631254071479  0.4925026557536023
  0.8792707281849041  0.2939812356433684  0.4925026557536023
  0.9816329329093136  0.3490993458795889  0.4925026557536023
  0.5249400195234868  0.0262647002102975  0.4925026557536023
  0.6273022242478965  0.0813828104465180  0.4925026557536023
  0.7296644289723057  0.1365009206827384  0.4925026557536023
  0.8320266336967151  0.1916190309189589  0.4925026557536023
  0.9343888384211247  0.2467371411551794  0.4925026557536023
  0.0367510431455340  0.3018552513913999  0.4925026557536023
  0.6824203344841169  0.0341387159583290  0.4925026557536023
  0.7847825392085261  0.0892568261945496  0.4925026557536023
  0.8871447439329356  0.1443749364307700  0.4925026557536023
  0.9895069486573451  0.1994930466669904  0.4925026557536023
  0.8399006494447466  0.0420127317063606  0.4925026557536023
  0.9422628541691562  0.0971308419425810  0.4925026557536023
  0.0446250588935657  0.1522489521788015  0.4925026557536023
  0.9973809644053766  0.0498867474543920  0.4925026557536023
  0.0524990746415972  0.0026426529662031  0.4925026557536023
  0.0577493084183804  0.9029091738255210  0.5902304754782247
  0.0105052139301915  0.8005469691011116  0.5902304754782247
  0.1128674186546008  0.8556650793373319  0.5902304754782247
  0.2152296233790103  0.9107831895735525  0.5902304754782247
  0.0656233241664119  0.7533028746129226  0.5902304754782247
  0.1679855288908214  0.8084209848491430  0.5902304754782247
  0.2703477336152308  0.8635390950853633  0.5902304754782247
  0.3727099383396401  0.9186572053215839  0.5902304754782247
  0.0183792296782230  0.6509406698885132  0.5902304754782247
  0.1207414344026323  0.7060587801247336  0.5902304754782247
  0.2231036391270420  0.7611768903609539  0.5902304754782247
  0.3254658438514512  0.8162950005971745  0.5902304754782247
  0.4278280485758607  0.8714131108333949  0.5902304754782247
  0.5301902533002703  0.9265312210696156  0.5902304754782247
  0.0734973399144434  0.6036965754003242  0.5902304754782247
  0.1758595446388528  0.6588146856365446  0.5902304754782247
  0.2782217493632624  0.7139327958727650  0.5902304754782247
  0.3805839540876716  0.7690509061089855  0.5902304754782247
  0.4829461588120811  0.8241690163452060  0.5902304754782247
  0.5853083635364906  0.8792871265814266  0.5902304754782247
  0.6876705682609000  0.9344052368176470  0.5902304754782247
  0.0262532454262544  0.5013343706759145  0.5902304754782247
  0.1286154501506639  0.5564524809121351  0.5902304754782247
  0.2309776548750735  0.6115705911483557  0.5902304754782247
  0.3333398595994828  0.6666887013845761  0.5902304754782247
  0.4357020643238922  0.7218068116207966  0.5902304754782247
  0.5380642690483017  0.7769249218570171  0.5902304754782247
  0.6404264737727110  0.8320430320932377  0.5902304754782247
  0.7427886784971206  0.8871611423294581  0.5902304754782247
  0.8451508832215300  0.9422792525656783  0.5902304754782247
  0.0813713556624749  0.4540902761877257  0.5902304754782247
  0.1837335603868843  0.5092083864239461  0.5902304754782247
  0.2860957651112938  0.5643264966601667  0.5902304754782247
  0.3884579698357031  0.6194446068963873  0.5902304754782247
  0.4908201745601126  0.6745627171326076  0.5902304754782247
  0.5931823792845221  0.7296808273688281  0.5902304754782247
  0.6955445840089315  0.7847989376050486  0.5902304754782247
  0.7979067887333410  0.8399170478412689  0.5902304754782247
  0.9002689934577505  0.8950351580774895  0.5902304754782247
  0.0341272611742860  0.3517280714633163  0.5902304754782247
  0.1364894658986952  0.4068461816995366  0.5902304754782247
  0.2388516706231049  0.4619642919357572  0.5902304754782247
  0.3412138753475142  0.5170824021719778  0.5902304754782247
  0.4435760800719237  0.5722005124081981  0.5902304754782247
  0.5459382847963331  0.6273186226444187  0.5902304754782247
  0.6483004895207424  0.6824367328806391  0.5902304754782247
  0.7506626942451520  0.7375548431168595  0.5902304754782247
  0.8530248989695615  0.7926729533530801  0.5902304754782247
  0.9553871036939708  0.8477910635893005  0.5902304754782247
  0.0892453714105063  0.3044839769751272  0.5902304754782247
  0.1916075761349158  0.3596020872113478  0.5902304754782247
  0.2939697808593253  0.4147201974475683  0.5902304754782247
  0.3963319855837346  0.4698383076837886  0.5902304754782247
  0.4986941903081443  0.5249564179200092  0.5902304754782247
  0.6010563950325535  0.5800745281562295  0.5902304754782247
  0.7034185997569630  0.6351926383924501  0.5902304754782247
  0.8057808044813725  0.6903107486286706  0.5902304754782247
  0.9081430092057819  0.7454288588648912  0.5902304754782247
  0.0420012769223175  0.2021217722507178  0.5902304754782247
  0.1443634816467267  0.2572398824869383  0.5902304754782247
  0.2467256863711364  0.3123579927231588  0.5902304754782247
  0.3490878910955457  0.3674761029593793  0.5902304754782247
  0.4514500958199552  0.4225942131955998  0.5902304754782247
  0.5538123005443647  0.4777123234318201  0.5902304754782247
  0.6561745052687742  0.5328304336680407  0.5902304754782247
  0.7585367099931836  0.5879485439042612  0.5902304754782247
  0.8608989147175929  0.6430666541404817  0.5902304754782247
  0.9632611194420023  0.6981847643767022  0.5902304754782247
  0.0971193871585378  0.1548776777625288  0.5902304754782247
  0.1994815918829473  0.2099957879987494  0.5902304754782247
  0.3018437966073568  0.2651138982349698  0.5902304754782247
  0.4042060013317661  0.3202320084711903  0.5902304754782247
  0.5065682060561758  0.3753501187074108  0.5902304754782247
  0.6089304107805851  0.4304682289436312  0.5902304754782247
  0.7112926155049946  0.4855863391798516  0.5902304754782247
  0.8136548202294041  0.5407044494160722  0.5902304754782247
  0.9160170249538135  0.5958225596522927  0.5902304754782247
  0.0498752926703490  0.0525154730381193  0.5902304754782247
  0.1522374973947582  0.1076335832743398  0.5902304754782247
  0.2545997021191679  0.1627516935105604  0.5902304754782247
  0.3569619068435772  0.2178698037467809  0.5902304754782247
  0.4593241115679866  0.2729879139830013  0.5902304754782247
  0.5616863162923962  0.3281060242192217  0.5902304754782247
  0.6640485210168056  0.3832241344554421  0.5902304754782247
  0.7664107257412150  0.4383422446916626  0.5902304754782247
  0.8687729304656244  0.4934603549278831  0.5902304754782247
  0.9711351351900339  0.5485784651641037  0.5902304754782247
  0.1049934029065693  0.0052713785499304  0.5902304754782247
  0.2073556076309788  0.0603894887861509  0.5902304754782247
  0.3097178123553883  0.1155075990223714  0.5902304754782247
  0.4120800170797978  0.1706257092585919  0.5902304754782247
  0.5144422218042073  0.2257438194948123  0.5902304754782247
  0.6168044265286166  0.2808619297310327  0.5902304754782247
  0.7191666312530259  0.3359800399672531  0.5902304754782247
  0.8215288359774354  0.3910981502034736  0.5902304754782247
  0.9238910407018450  0.4462162604396941  0.5902304754782247
  0.1601115131427897  0.9580272840617414  0.5902304754782247
  0.2624737178671994  0.0131453942979619  0.5902304754782247
  0.3648359225916086  0.0682635045341824  0.5902304754782247
  0.4671981273160183  0.1233816147704029  0.5902304754782247
  0.5695603320404276  0.1784997250066234  0.5902304754782247
  0.6719225367648370  0.2336178352428437  0.5902304754782247
  0.7742847414892464  0.2887359454790642  0.5902304754782247
  0.8766469462136558  0.3438540557152847  0.5902304754782247
  0.9790091509380654  0.3989721659515052  0.5902304754782247
  0.3175918281034197  0.9659012998097728  0.5902304754782247
  0.4199540328278293  0.0210194100459935  0.5902304754782247
  0.5223162375522388  0.0761375202822139  0.5902304754782247
  0.6246784422766479  0.1312556305184345  0.5902304754782247
  0.7270406470010575  0.1863737407546547  0.5902304754782247
  0.8294028517254669  0.2414918509908752  0.5902304754782247
  0.9317650564498765  0.2966099612270957  0.5902304754782247
  0.4750721430640498  0.9737753155578045  0.5902304754782247
  0.5774343477884591  0.0288934257940250  0.5902304754782247
  0.6797965525128685  0.0840115360302453  0.5902304754782247
  0.7821587572372779  0.1391296462664658  0.5902304754782247
  0.8845209619616875  0.1942477565026862  0.5902304754782247
  0.9868831666860969  0.2493658667389067  0.5902304754782247
  0.6325524580246795  0.9816493313058361  0.5902304754782247
  0.7349146627490890  0.0367674415420564  0.5902304754782247
  0.8372768674734984  0.0918855517782768  0.5902304754782247
  0.9396390721979079  0.1470036620144973  0.5902304754782247
  0.7900327729853095  0.9895233470538672  0.5902304754782247
  0.8923949777097190  0.0446414572900878  0.5902304754782247
  0.9947571824341283  0.0997595675263083  0.5902304754782247
  0.9475130879459394  0.9973973628018989  0.5902304754782247
  0.0026311981821602  0.9501532683137101  0.5902304754782247
  0.0577493084183804  0.9029091738255210  0.6924348929194477
  0.0105052139301915  0.8005469691011116  0.6924348929194477
  0.1128674186546008  0.8556650793373319  0.6924348929194477
  0.2152296233790103  0.9107831895735525  0.6924348929194477
  0.0656233241664119  0.7533028746129226  0.6924348929194477
  0.1679855288908214  0.8084209848491430  0.6924348929194477
  0.2703477336152308  0.8635390950853633  0.6924348929194477
  0.3727099383396401  0.9186572053215839  0.6924348929194477
  0.0183792296782230  0.6509406698885132  0.6924348929194477
  0.1207414344026323  0.7060587801247336  0.6924348929194477
  0.2231036391270420  0.7611768903609539  0.6924348929194477
  0.3254658438514512  0.8162950005971745  0.6924348929194477
  0.4278280485758607  0.8714131108333949  0.6924348929194477
  0.5301902533002703  0.9265312210696156  0.6924348929194477
  0.0734973399144434  0.6036965754003242  0.6924348929194477
  0.1758595446388528  0.6588146856365446  0.6924348929194477
  0.2782217493632624  0.7139327958727650  0.6924348929194477
  0.3805839540876716  0.7690509061089855  0.6924348929194477
  0.4829461588120811  0.8241690163452060  0.6924348929194477
  0.5853083635364906  0.8792871265814266  0.6924348929194477
  0.6876705682609000  0.9344052368176470  0.6924348929194477
  0.0262532454262544  0.5013343706759145  0.6924348929194477
  0.1286154501506639  0.5564524809121351  0.6924348929194477
  0.2309776548750735  0.6115705911483557  0.6924348929194477
  0.3333398595994828  0.6666887013845761  0.6924348929194477
  0.4357020643238922  0.7218068116207966  0.6924348929194477
  0.5380642690483017  0.7769249218570171  0.6924348929194477
  0.6404264737727110  0.8320430320932377  0.6924348929194477
  0.7427886784971206  0.8871611423294581  0.6924348929194477
  0.8451508832215300  0.9422792525656783  0.6924348929194477
  0.0813713556624749  0.4540902761877257  0.6924348929194477
  0.1837335603868843  0.5092083864239461  0.6924348929194477
  0.2860957651112938  0.5643264966601667  0.6924348929194477
  0.3884579698357031  0.6194446068963873  0.6924348929194477
  0.4908201745601126  0.6745627171326076  0.6924348929194477
  0.5931823792845221  0.7296808273688281  0.6924348929194477
  0.6955445840089315  0.7847989376050486  0.6924348929194477
  0.7979067887333410  0.8399170478412689  0.6924348929194477
  0.9002689934577505  0.8950351580774895  0.6924348929194477
  0.0341272611742860  0.3517280714633163  0.6924348929194477
  0.1364894658986952  0.4068461816995366  0.6924348929194477
  0.2388516706231049  0.4619642919357572  0.6924348929194477
  0.3412138753475142  0.5170824021719778  0.6924348929194477
  0.4435760800719237  0.5722005124081981  0.6924348929194477
  0.5459382847963331  0.6273186226444187  0.6924348929194477
  0.6483004895207424  0.6824367328806391  0.6924348929194477
  0.7506626942451520  0.7375548431168595  0.6924348929194477
  0.8530248989695615  0.7926729533530801  0.6924348929194477
  0.9553871036939708  0.8477910635893005  0.6924348929194477
  0.0892453714105063  0.3044839769751272  0.6924348929194477
  0.1916075761349158  0.3596020872113478  0.6924348929194477
  0.2939697808593253  0.4147201974475683  0.6924348929194477
  0.3963319855837346  0.4698383076837886  0.6924348929194477
  0.4986941903081443  0.5249564179200092  0.6924348929194477
  0.6010563950325535  0.5800745281562295  0.6924348929194477
  0.7034185997569630  0.6351926383924501  0.6924348929194477
  0.8057808044813725  0.6903107486286706  0.6924348929194477
  0.9081430092057819  0.7454288588648912  0.6924348929194477
  0.0420012769223175  0.2021217722507178  0.6924348929194477
  0.1443634816467267  0.2572398824869383  0.6924348929194477
  0.2467256863711364  0.3123579927231588  0.6924348929194477
  0.3490878910955457  0.3674761029593793  0.6924348929194477
  0.4514500958199552  0.4225942131955998  0.6924348929194477
  0.5538123005443647  0.4777123234318201  0.6924348929194477
  0.6561745052687742  0.5328304336680407  0.6924348929194477
  0.7585367099931836  0.5879485439042612  0.6924348929194477
  0.8608989147175929  0.6430666541404817  0.6924348929194477
  0.9632611194420023  0.6981847643767022  0.6924348929194477
  0.0971193871585378  0.1548776777625288  0.6924348929194477
  0.1994815918829473  0.2099957879987494  0.6924348929194477
  0.3018437966073568  0.2651138982349698  0.6924348929194477
  0.4042060013317661  0.3202320084711903  0.6924348929194477
  0.5065682060561758  0.3753501187074108  0.6924348929194477
  0.6089304107805851  0.4304682289436312  0.6924348929194477
  0.7112926155049946  0.4855863391798516  0.6924348929194477
  0.8136548202294041  0.5407044494160722  0.6924348929194477
  0.9160170249538135  0.5958225596522927  0.6924348929194477
  0.0498752926703490  0.0525154730381193  0.6924348929194477
  0.1522374973947582  0.1076335832743398  0.6924348929194477
  0.2545997021191679  0.1627516935105604  0.6924348929194477
  0.3569619068435772  0.2178698037467809  0.6924348929194477
  0.4593241115679866  0.2729879139830013  0.6924348929194477
  0.5616863162923962  0.3281060242192217  0.6924348929194477
  0.6640485210168056  0.3832241344554421  0.6924348929194477
  0.7664107257412150  0.4383422446916626  0.6924348929194477
  0.8687729304656244  0.4934603549278831  0.6924348929194477
  0.9711351351900339  0.5485784651641037  0.6924348929194477
  0.1049934029065693  0.0052713785499304  0.6924348929194477
  0.2073556076309788  0.0603894887861509  0.6924348929194477
  0.3097178123553883  0.1155075990223714  0.6924348929194477
  0.4120800170797978  0.1706257092585919  0.6924348929194477
  0.5144422218042073  0.2257438194948123  0.6924348929194477
  0.6168044265286166  0.2808619297310327  0.6924348929194477
  0.7191666312530259  0.3359800399672531  0.6924348929194477
  0.8215288359774354  0.3910981502034736  0.6924348929194477
  0.9238910407018450  0.4462162604396941  0.6924348929194477
  0.1601115131427897  0.9580272840617414  0.6924348929194477
  0.2624737178671994  0.0131453942979619  0.6924348929194477
  0.3648359225916086  0.0682635045341824  0.6924348929194477
  0.4671981273160183  0.1233816147704029  0.6924348929194477
  0.5695603320404276  0.1784997250066234  0.6924348929194477
  0.6719225367648370  0.2336178352428437  0.6924348929194477
  0.7742847414892464  0.2887359454790642  0.6924348929194477
  0.8766469462136558  0.3438540557152847  0.6924348929194477
  0.9790091509380654  0.3989721659515052  0.6924348929194477
  0.3175918281034197  0.9659012998097728  0.6924348929194477
  0.4199540328278293  0.0210194100459935  0.6924348929194477
  0.5223162375522388  0.0761375202822139  0.6924348929194477
  0.6246784422766479  0.1312556305184345  0.6924348929194477
  0.7270406470010575  0.1863737407546547  0.6924348929194477
  0.8294028517254669  0.2414918509908752  0.6924348929194477
  0.9317650564498765  0.2966099612270957  0.6924348929194477
  0.4750721430640498  0.9737753155578045  0.6924348929194477
  0.5774343477884591  0.0288934257940250  0.6924348929194477
  0.6797965525128685  0.0840115360302453  0.6924348929194477
  0.7821587572372779  0.1391296462664658  0.6924348929194477
  0.8845209619616875  0.1942477565026862  0.6924348929194477
  0.9868831666860969  0.2493658667389067  0.6924348929194477
  0.6325524580246795  0.9816493313058361  0.6924348929194477
  0.7349146627490890  0.0367674415420564  0.6924348929194477
  0.8372768674734984  0.0918855517782768  0.6924348929194477
  0.9396390721979079  0.1470036620144973  0.6924348929194477
  0.7900327729853095  0.9895233470538672  0.6924348929194477
  0.8923949777097190  0.0446414572900878  0.6924348929194477
  0.9947571824341283  0.0997595675263083  0.6924348929194477
  0.9475130879459394  0.9973973628018989  0.6924348929194477
  0.0026311981821602  0.9501532683137101  0.6924348929194477
  0.0446134395627906  0.8923919010200222  0.2355384222800480
  0.1469756442872001  0.9396359955082112  0.2355384222800480
  0.0918575340509797  0.8372737907838017  0.2355384222800480
  0.1942197387753892  0.8845178852719907  0.2355384222800480
  0.2965819434997985  0.9317619797601797  0.2355384222800480
  0.0367394238147591  0.7349115860593923  0.2355384222800480
  0.1391016285391686  0.7821556805475812  0.2355384222800480
  0.2414638332635781  0.8293997750357701  0.2355384222800480
  0.3438260379879876  0.8766438695239592  0.2355384222800480
  0.4461882427123970  0.9238879640121482  0.2355384222800480
  0.0839835183029483  0.6797934758231718  0.2355384222800480
  0.1863457230273577  0.7270375703113606  0.2355384222800480
  0.2887079277517670  0.7742816647995497  0.2355384222800480
  0.3910701324761765  0.8215257592877387  0.2355384222800480
  0.4934323372005860  0.8687698537759277  0.2355384222800480
  0.5957945419249953  0.9160139482641168  0.2355384222800480
  0.0288654080667276  0.5774312710987624  0.2355384222800480
  0.1312276127911371  0.6246753655869512  0.2355384222800480
  0.2335898175155466  0.6719194600751401  0.2355384222800480
  0.3359520222399559  0.7191635545633293  0.2355384222800480
  0.4383142269643656  0.7664076490515183  0.2355384222800480
  0.5406764316887749  0.8136517435397073  0.2355384222800480
  0.6430386364131843  0.8608958380278963  0.2355384222800480
  0.7454008411375938  0.9081399325160852  0.2355384222800480
  0.0761095025549166  0.5223131608625419  0.2355384222800480
  0.1784717072793260  0.5695572553507309  0.2355384222800480
  0.2808339120037355  0.6168013498389199  0.2355384222800480
  0.3831961167281450  0.6640454443271088  0.2355384222800480
  0.4855583214525545  0.7112895388152978  0.2355384222800480
  0.5879205261769638  0.7585336333034868  0.2355384222800480
  0.6902827309013735  0.8057777277916757  0.2355384222800480
  0.7926449356257826  0.8530218222798648  0.2355384222800480
  0.8950071403501922  0.9002659167680537  0.2355384222800480
  0.0209913923186962  0.4199509561381324  0.2355384222800480
  0.1233535970431056  0.4671950506263213  0.2355384222800480
  0.2257158017675151  0.5144391451145104  0.2355384222800480
  0.3280780064919244  0.5616832396026994  0.2355384222800480
  0.4304402112163341  0.6089273340908884  0.2355384222800480
  0.5328024159407434  0.6561714285790773  0.2355384222800480
  0.6351646206651529  0.7034155230672663  0.2355384222800480
  0.7375268253895623  0.7506596175554552  0.2355384222800480
  0.8398890301139716  0.7979037120436443  0.2355384222800480
  0.9422512348383812  0.8451478065318332  0.2355384222800480
  0.0682354868068851  0.3648328459019119  0.2355384222800480
  0.1705976915312945  0.4120769403901009  0.2355384222800480
  0.2729598962557040  0.4593210348782899  0.2355384222800480
  0.3753221009801135  0.5065651293664789  0.2355384222800480
  0.4776843057045230  0.5538092238546679  0.2355384222800480
  0.5800465104289322  0.6010533183428569  0.2355384222800480
  0.6824087151533417  0.6482974128310457  0.2355384222800480
  0.7847709198777512  0.6955415073192348  0.2355384222800480
  0.8871331246021606  0.7427856018074238  0.2355384222800480
  0.9894953293265701  0.7900296962956127  0.2355384222800480
  0.0131173765706647  0.2624706411775024  0.2355384222800480
  0.1154795812950742  0.3097147356656915  0.2355384222800480
  0.2178417860194837  0.3569588301538804  0.2355384222800480
  0.3202039907438929  0.4042029246420694  0.2355384222800480
  0.4225661954683024  0.4514470191302584  0.2355384222800480
  0.5249284001927118  0.4986911136184474  0.2355384222800480
  0.6272906049171213  0.5459352081066363  0.2355384222800480
  0.7296528096415309  0.5931793025948253  0.2355384222800480
  0.8320150143659402  0.6404233970830143  0.2355384222800480
  0.9343772190903498  0.6876674915712033  0.2355384222800480
  0.0603614710588536  0.2073525309412820  0.2355384222800480
  0.1627236757832630  0.2545966254294709  0.2355384222800480
  0.2650858805076725  0.3018407199176599  0.2355384222800480
  0.3674480852320821  0.3490848144058489  0.2355384222800480
  0.4698102899564915  0.3963289088940379  0.2355384222800480
  0.5721724946809008  0.4435730033822269  0.2355384222800480
  0.6745346994053103  0.4908170978704159  0.2355384222800480
  0.7768969041297198  0.5380611923586048  0.2355384222800480
  0.8792591088541291  0.5853052868467938  0.2355384222800480
  0.9816213135785387  0.6325493813349828  0.2355384222800480
  0.0052433608226332  0.1049903262168725  0.2355384222800480
  0.1076055655470427  0.1522344207050615  0.2355384222800480
  0.2099677702714522  0.1994785151932505  0.2355384222800480
  0.3123299749958615  0.2467226096814394  0.2355384222800480
  0.4146921797202708  0.2939667041696284  0.2355384222800480
  0.5170543844446804  0.3412107986578174  0.2355384222800480
  0.6194165891690898  0.3884548931460065  0.2355384222800480
  0.7217787938934994  0.4356989876341955  0.2355384222800480
  0.8241409986179087  0.4829430821223843  0.2355384222800480
  0.9265032033423183  0.5301871766105734  0.2355384222800480
  0.0524874553108221  0.0498722159806522  0.2355384222800480
  0.1548496600352316  0.0971163104688410  0.2355384222800480
  0.2572118647596411  0.1443604049570300  0.2355384222800480
  0.3595740694840503  0.1916044994452191  0.2355384222800480
  0.4619362742084601  0.2388485939334080  0.2355384222800480
  0.5642984789328693  0.2860926884215970  0.2355384222800480
  0.6666606836572787  0.3333367829097859  0.2355384222800480
  0.7690228883816883  0.3805808773979749  0.2355384222800480
  0.8713850931060975  0.4278249718861640  0.2355384222800480
  0.9737472978305073  0.4750690663743528  0.2355384222800480
  0.0997315497990112  0.9947541057444317  0.2355384222800480
  0.2020937545234207  0.0419982002326207  0.2355384222800480
  0.3044559592478299  0.0892422947208096  0.2355384222800480
  0.4068181639722394  0.1364863892089985  0.2355384222800480
  0.5091803686966490  0.1837304836971875  0.2355384222800480
  0.6115425734210582  0.2309745781853765  0.2355384222800480
  0.7139047781454679  0.2782186726735655  0.2355384222800480
  0.8162669828698771  0.3254627671617545  0.2355384222800480
  0.9186291875942866  0.3727068616499434  0.2355384222800480
  0.2493378490116096  0.9868800899964002  0.2355384222800480
  0.3517000537360191  0.0341241844845892  0.2355384222800480
  0.4540622584604285  0.0813682789727781  0.2355384222800480
  0.5564244631848378  0.1286123734609670  0.2355384222800480
  0.6587866679092473  0.1758564679491560  0.2355384222800480
  0.7611488726336567  0.2231005624373450  0.2355384222800480
  0.8635110773580662  0.2703446569255340  0.2355384222800480
  0.9658732820824756  0.3175887514137230  0.2355384222800480
  0.3989441482242079  0.9790060742483686  0.2355384222800480
  0.5013063529486175  0.0262501687365577  0.2355384222800480
  0.6036685576730266  0.0734942632247465  0.2355384222800480
  0.7060307623974363  0.1207383577129355  0.2355384222800480
  0.8083929671218456  0.1679824522011245  0.2355384222800480
  0.9107551718462552  0.2152265466893135  0.2355384222800480
  0.5485504474368063  0.9711320585003372  0.2355384222800480
  0.6509126521612159  0.0183761529885261  0.2355384222800480
  0.7532748568856253  0.0656202474767151  0.2355384222800480
  0.8556370616100345  0.1128643419649040  0.2355384222800480
  0.9579992663344441  0.1601084364530930  0.2355384222800480
  0.6981567466494050  0.9632580427523058  0.2355384222800480
  0.8005189513738142  0.0105021372404946  0.2355384222800480
  0.9028811560982237  0.0577462317286835  0.2355384222800480
  0.8477630458620031  0.9553840270042742  0.2355384222800480
  0.9501252505864127  0.0026281214924632  0.2355384222800480
  0.9973693450746016  0.9475100112562426  0.2355384222800480
  0.0577484184736181  0.9029051201578041  0.4414004470329909
  0.0105043239854292  0.8005429154333947  0.4414004470329909
  0.1128665287098384  0.8556610256696150  0.4414004470329909
  0.2152287334342482  0.9107791359058356  0.4414004470329909
  0.0656224342216495  0.7532988209452056  0.4414004470329909
  0.1679846389460591  0.8084169311814262  0.4414004470329909
  0.2703468436704686  0.8635350414176466  0.4414004470329909
  0.3727090483948778  0.9186531516538672  0.4414004470329909
  0.0183783397334607  0.6509366162207962  0.4414004470329909
  0.1207405444578702  0.7060547264570167  0.4414004470329909
  0.2231027491822797  0.7611728366932372  0.4414004470329909
  0.3254649539066889  0.8162909469294577  0.4414004470329909
  0.4278271586310984  0.8714090571656781  0.4414004470329909
  0.5301893633555079  0.9265271674018987  0.4414004470329909
  0.0734964499696811  0.6036925217326073  0.4414004470329909
  0.1758586546940905  0.6588106319688278  0.4414004470329909
  0.2782208594185001  0.7139287422050482  0.4414004470329909
  0.3805830641429095  0.7690468524412687  0.4414004470329909
  0.4829452688673190  0.8241649626774892  0.4414004470329909
  0.5853074735917282  0.8792830729137096  0.4414004470329909
  0.6876696783161377  0.9344011831499300  0.4414004470329909
  0.0262523554814922  0.5013303170081979  0.4414004470329909
  0.1286145602059017  0.5564484272444183  0.4414004470329909
  0.2309767649303111  0.6115665374806388  0.4414004470329909
  0.3333389696547204  0.6666846477168593  0.4414004470329909
  0.4357011743791301  0.7218027579530797  0.4414004470329909
  0.5380633791035394  0.7769208681893003  0.4414004470329909
  0.6404255838279487  0.8320389784255207  0.4414004470329909
  0.7427877885523583  0.8871570886617411  0.4414004470329909
  0.8451499932767677  0.9422751988979617  0.4414004470329909
  0.0813704657177126  0.4540862225200087  0.4414004470329909
  0.1837326704421220  0.5092043327562294  0.4414004470329909
  0.2860948751665315  0.5643224429924498  0.4414004470329909
  0.3884570798909410  0.6194405532286703  0.4414004470329909
  0.4908192846153503  0.6745586634648907  0.4414004470329909
  0.5931814893397597  0.7296767737011112  0.4414004470329909
  0.6955436940641695  0.7847948839373317  0.4414004470329909
  0.7979058987885788  0.8399129941735521  0.4414004470329909
  0.9002681035129882  0.8950311044097726  0.4414004470329909
  0.0341263712295237  0.3517240177955994  0.4414004470329909
  0.1364885759539329  0.4068421280318198  0.4414004470329909
  0.2388507806783426  0.4619602382680402  0.4414004470329909
  0.3412129854027519  0.5170783485042609  0.4414004470329909
  0.4435751901271615  0.5721964587404812  0.4414004470329909
  0.5459373948515708  0.6273145689767018  0.4414004470329909
  0.6482995995759804  0.6824326792129223  0.4414004470329909
  0.7506618043003896  0.7375507894491427  0.4414004470329909
  0.8530240090247992  0.7926688996853632  0.4414004470329909
  0.9553862137492086  0.8477870099215836  0.4414004470329909
  0.0892444814657440  0.3044799233074104  0.4414004470329909
  0.1916066861901535  0.3595980335436308  0.4414004470329909
  0.2939688909145630  0.4147161437798513  0.4414004470329909
  0.3963310956389723  0.4698342540160717  0.4414004470329909
  0.4986933003633819  0.5249523642522924  0.4414004470329909
  0.6010555050877913  0.5800704744885128  0.4414004470329909
  0.7034177098122009  0.6351885847247334  0.4414004470329909
  0.8057799145366101  0.6903066949609538  0.4414004470329909
  0.9081421192610197  0.7454248051971742  0.4414004470329909
  0.0420003869775551  0.2021177185830009  0.4414004470329909
  0.1443625917019646  0.2572358288192214  0.4414004470329909
  0.2467247964263741  0.3123539390554418  0.4414004470329909
  0.3490870011507834  0.3674720492916623  0.4414004470329909
  0.4514492058751928  0.4225901595278828  0.4414004470329909
  0.5538114105996024  0.4777082697641032  0.4414004470329909
  0.6561736153240119  0.5328263800003239  0.4414004470329909
  0.7585358200484212  0.5879444902365443  0.4414004470329909
  0.8608980247728307  0.6430626004727648  0.4414004470329909
  0.9632602294972401  0.6981807107089852  0.4414004470329909
  0.0971184972137755  0.1548736240948120  0.4414004470329909
  0.1994807019381850  0.2099917343310325  0.4414004470329909
  0.3018429066625945  0.2651098445672530  0.4414004470329909
  0.4042051113870039  0.3202279548034733  0.4414004470329909
  0.5065673161114135  0.3753460650396938  0.4414004470329909
  0.6089295208358227  0.4304641752759143  0.4414004470329909
  0.7112917255602323  0.4855822855121349  0.4414004470329909
  0.8136539302846418  0.5407003957483554  0.4414004470329909
  0.9160161350090511  0.5958185059845758  0.4414004470329909
  0.0498744027255866  0.0525114193704025  0.4414004470329909
  0.1522366074499961  0.1076295296066230  0.4414004470329909
  0.2545988121744056  0.1627476398428435  0.4414004470329909
  0.3569610168988149  0.2178657500790639  0.4414004470329909
  0.4593232216232243  0.2729838603152844  0.4414004470329909
  0.5616854263476339  0.3281019705515048  0.4414004470329909
  0.6640476310720432  0.3832200807877252  0.4414004470329909
  0.7664098357964527  0.4383381910239458  0.4414004470329909
  0.8687720405208622  0.4934563012601664  0.4414004470329909
  0.9711342452452717  0.5485744114963867  0.4414004470329909
  0.1049925129618070  0.0052673248822136  0.4414004470329909
  0.2073547176862165  0.0603854351184340  0.4414004470329909
  0.3097169224106260  0.1155035453546545  0.4414004470329909
  0.4120791271350355  0.1706216555908749  0.4414004470329909
  0.5144413318594449  0.2257397658270954  0.4414004470329909
  0.6168035365838542  0.2808578760633159  0.4414004470329909
  0.7191657413082637  0.3359759862995363  0.4414004470329909
  0.8215279460326732  0.3910940965357568  0.4414004470329909
  0.9238901507570826  0.4462122067719773  0.4414004470329909
  0.1601106231980275  0.9580232303940245  0.4414004470329909
  0.2624728279224371  0.0131413406302451  0.4414004470329909
  0.3648350326468463  0.0682594508664655  0.4414004470329909
  0.4671972373712560  0.1233775611026861  0.4414004470329909
  0.5695594420956652  0.1784956713389064  0.4414004470329909
  0.6719216468200748  0.2336137815751269  0.4414004470329909
  0.7742838515444841  0.2887318918113474  0.4414004470329909
  0.8766460562688936  0.3438500020475678  0.4414004470329909
  0.9790082609933030  0.3989681122837883  0.4414004470329909
  0.3175909381586575  0.9658972461420562  0.4414004470329909
  0.4199531428830670  0.0210153563782766  0.4414004470329909
  0.5223153476074764  0.0761334666144969  0.4414004470329909
  0.6246775523318856  0.1312515768507175  0.4414004470329909
  0.7270397570562952  0.1863696870869379  0.4414004470329909
  0.8294019617807047  0.2414877973231584  0.4414004470329909
  0.9317641665051141  0.2966059075593789  0.4414004470329909
  0.4750712531192876  0.9737712618900876  0.4414004470329909
  0.5774334578436968  0.0288893721263080  0.4414004470329909
  0.6797956625681063  0.0840074823625285  0.4414004470329909
  0.7821578672925157  0.1391255925987490  0.4414004470329909
  0.8845200720169251  0.1942437028349694  0.4414004470329909
  0.9868822767413347  0.2493618130711899  0.4414004470329909
  0.6325515680799172  0.9816452776381189  0.4414004470329909
  0.7349137728043268  0.0367633878743395  0.4414004470329909
  0.8372759775287362  0.0918814981105600  0.4414004470329909
  0.9396381822531457  0.1469996083467805  0.4414004470329909
  0.7900318830405473  0.9895192933861506  0.4414004470329909
  0.8923940877649568  0.0446374036223710  0.4414004470329909
  0.9947562924893660  0.0997555138585915  0.4414004470329909
  0.9475121980011769  0.9973933091341820  0.4414004470329909
  0.0026303082373977  0.9501492146459931  0.4414004470329909
  0.0052558700981704  0.9002845019095105  0.6413326841988362
  0.1076180748225799  0.9554026121457310  0.6413326841988362
  0.0603739803343908  0.8530404074213216  0.6413326841988362
  0.0131298858462019  0.7506782026969121  0.6413326841988362
  0.1627361850588005  0.9081585176575420  0.6413326841988362
  0.1154920905706114  0.8057963129331326  0.6413326841988362
  0.0682479960824225  0.7034341082087231  0.6413326841988362
  0.0210039015942334  0.6010719034843137  0.6413326841988362
  0.2650983897832097  0.9632766278937623  0.6413326841988362
  0.2178542952950209  0.8609144231693531  0.6413326841988362
  0.1706102008068320  0.7585522184449436  0.6413326841988362
  0.1233661063186429  0.6561900137205341  0.6413326841988362
  0.0761220118304540  0.5538278089961247  0.6413326841988362
  0.0288779173422648  0.4514656042717151  0.6413326841988362
  0.3202165000194301  0.9160325334055733  0.6413326841988362
  0.2729724055312412  0.8136703286811640  0.6413326841988362
  0.2257283110430523  0.7113081239567546  0.6413326841988362
  0.1784842165548634  0.6089459192323451  0.6413326841988362
  0.1312401220666743  0.5065837145079357  0.6413326841988362
  0.0839960275784852  0.4042215097835262  0.6413326841988362
  0.0367519330902963  0.3018593050591167  0.6413326841988362
  0.4225787047438399  0.9711506436417939  0.6413326841988362
  0.3753346102556507  0.8687884389173846  0.6413326841988362
  0.3280905157674618  0.7664262341929751  0.6413326841988362
  0.2808464212792727  0.6640640294685656  0.6413326841988362
  0.2336023267910838  0.5617018247441562  0.6413326841988362
  0.1863582323028949  0.4593396200197466  0.6413326841988362
  0.1391141378147058  0.3569774152953372  0.6413326841988362
  0.0918700433265169  0.2546152105709277  0.6413326841988362
  0.0446259488383278  0.1522530058465184  0.6413326841988362
  0.4776968149800602  0.9239065491536049  0.6413326841988362
  0.4304527204918713  0.8215443444291955  0.6413326841988362
  0.3832086260036824  0.7191821397047862  0.6413326841988362
  0.3359645315154933  0.6168199349803767  0.6413326841988362
  0.2887204370273042  0.5144577302559672  0.6413326841988362
  0.2414763425391153  0.4120955255315577  0.6413326841988362
  0.1942322480509264  0.3097333208071482  0.6413326841988362
  0.1469881535627373  0.2073711160827388  0.6413326841988362
  0.0997440590745484  0.1050089113583293  0.6413326841988362
  0.0524999645863593  0.0026467066339200  0.6413326841988362
  0.5800590197044696  0.9790246593898254  0.6413326841988362
  0.5328149252162806  0.8766624546654160  0.6413326841988362
  0.4855708307280917  0.7743002499410065  0.6413326841988362
  0.4383267362399028  0.6719380452165972  0.6413326841988362
  0.3910826417517139  0.5695758404921878  0.6413326841988362
  0.3438385472635246  0.4672136357677781  0.6413326841988362
  0.2965944527753357  0.3648514310433687  0.6413326841988362
  0.2493503582871468  0.2624892263189593  0.6413326841988362
  0.2021062637989579  0.1601270215945498  0.6413326841988362
  0.1548621693107688  0.0577648168701403  0.6413326841988362
  0.6351771299406899  0.9317805649016363  0.6413326841988362
  0.5879330354525010  0.8294183601772270  0.6413326841988362
  0.5406889409643121  0.7270561554528177  0.6413326841988362
  0.4934448464761231  0.6246939507284082  0.6413326841988362
  0.4462007519879342  0.5223317460039987  0.6413326841988362
  0.3989566574997451  0.4199695412795891  0.6413326841988362
  0.3517125630115562  0.3176073365551797  0.6413326841988362
  0.3044684685233672  0.2152451318307703  0.6413326841988362
  0.2572243740351783  0.1128829271063608  0.6413326841988362
  0.2099802795469894  0.0105207223819515  0.6413326841988362
  0.7375393346650995  0.9868986751378568  0.6413326841988362
  0.6902952401769106  0.8845364704134475  0.6413326841988362
  0.6430511456887218  0.7821742656890380  0.6413326841988362
  0.5958070512005327  0.6798120609646285  0.6413326841988362
  0.5485629567123436  0.5774498562402192  0.6413326841988362
  0.5013188622241547  0.4750876515158095  0.6413326841988362
  0.4540747677359658  0.3727254467914002  0.6413326841988362
  0.4068306732477766  0.2703632420669908  0.6413326841988362
  0.3595865787595878  0.1680010373425813  0.6413326841988362
  0.3123424842713986  0.0656388326181718  0.6413326841988362
  0.7926574449013200  0.9396545806496679  0.6413326841988362
  0.7454133504131311  0.8372923759252584  0.6413326841988362
  0.6981692559249419  0.7349301712008490  0.6413326841988362
  0.6509251614367532  0.6325679664764395  0.6413326841988362
  0.6036810669485640  0.5302057617520302  0.6413326841988362
  0.5564369724603750  0.4278435570276207  0.6413326841988362
  0.5091928779721862  0.3254813523032112  0.6413326841988362
  0.4619487834839973  0.2231191475788018  0.6413326841988362
  0.4147046889958083  0.1207569428543924  0.6413326841988362
  0.3674605945076192  0.0183947381299829  0.6413326841988362
  0.8950196496257294  0.9947726908858884  0.6413326841988362
  0.8477755551375405  0.8924104861614789  0.6413326841988362
  0.8005314606493515  0.7900482814370695  0.6413326841988362
  0.7532873661611624  0.6876860767126601  0.6413326841988362
  0.7060432716729735  0.5853238719882508  0.6413326841988362
  0.6587991771847845  0.4829616672638412  0.6413326841988362
  0.6115550826965955  0.3805994625394316  0.6413326841988362
  0.5643109882084065  0.2782372578150223  0.6413326841988362
  0.5170668937202175  0.1758750530906128  0.6413326841988362
  0.4698227992320286  0.0735128483662033  0.6413326841988362
  0.9501377598619500  0.9475285963976996  0.6413326841988362
  0.9028936653737609  0.8451663916732901  0.6413326841988362
  0.8556495708855720  0.7428041869488806  0.6413326841988362
  0.8084054763973830  0.6404419822244711  0.6413326841988362
  0.7611613819091940  0.5380797775000618  0.6413326841988362
  0.7139172874210050  0.4357175727756522  0.6413326841988362
  0.6666731929328161  0.3333553680512427  0.6413326841988362
  0.6194290984446271  0.2309931633268333  0.6413326841988362
  0.5721850039564379  0.1286309586024239  0.6413326841988362
  0.5249409094682491  0.0262687538780144  0.6413326841988362
  0.9580117756099815  0.7979222971851010  0.6413326841988362
  0.9107676811217924  0.6955600924606916  0.6413326841988362
  0.8635235866336034  0.5931978877362822  0.6413326841988362
  0.8162794921454145  0.4908356830118727  0.6413326841988362
  0.7690353976572255  0.3884734782874631  0.6413326841988362
  0.7217913031690364  0.2861112735630538  0.6413326841988362
  0.6745472086808475  0.1837490688386443  0.6413326841988362
  0.6273031141926586  0.0813868641142349  0.6413326841988362
  0.9658857913580130  0.6483159979725026  0.6413326841988362
  0.9186416968698240  0.5459537932480932  0.6413326841988362
  0.8713976023816349  0.4435915885236836  0.6413326841988362
  0.8241535078934460  0.3412293837992741  0.6413326841988362
  0.7769094134052570  0.2388671790748648  0.6413326841988362
  0.7296653189170680  0.1365049743504554  0.6413326841988362
  0.6824212244288791  0.0341427696260459  0.6413326841988362
  0.9737598071060445  0.4987096987599042  0.6413326841988362
  0.9265157126178553  0.3963474940354946  0.6413326841988362
  0.8792716181296664  0.2939852893110853  0.6413326841988362
  0.8320275236414774  0.1916230845866758  0.6413326841988362
  0.7847834291532884  0.0892608798622664  0.6413326841988362
  0.9816338228540759  0.3491033995473057  0.6413326841988362
  0.9343897283658870  0.2467411948228962  0.6413326841988362
  0.8871456338776980  0.1443789900984869  0.6413326841988362
  0.8399015393895091  0.0420167853740774  0.6413326841988362
  0.9895078386021073  0.1994971003347072  0.6413326841988362
  0.9422637441139184  0.0971348956102979  0.6413326841988362
  0.9973818543501388  0.0498908011221089  0.6413326841988362
